svm_type c_svc
kernel_type rbf
gamma 0.0078125
nr_class 2
total_sv 550
rho 0.27604100022822653
label 0 1
nr_sv 184 366
SV
10.009096314826762 -879134437:0.0 -466984923:53.0 3556653:72.0 82363777:1.0 111972721:72.0 996001774:1.0 1169676869:1.0 1527810816:1.0 1530593462:1.0 
43.73335792986208 -879134437:0.0 -466984923:25.0 3223123:1.0 3556653:72.0 56040503:0.0 82363777:1.0 111972721:72.0 1169676869:0.0 2026591854:1.0 
0.8430068816028183 -879134437:2.0 -466984923:323.0 3556653:31.0 82363777:1.0 111972721:31.0 1046841704:1.0 1169676869:1.0 1530593462:1.0 
12.056524549238862 -879134437:0.0 -466984923:72.0 3556653:96.0 82363777:0.0 111972721:96.0 203757181:1.0 1046855235:1.0 1169676869:0.0 
1.2759037286121875 -1600162100:1.0 3556653:1507490.0 56040503:1.0 111972721:100.0 
67.1960271801809 -879134437:0.0 -466984923:17.0 -409125442:1.0 3556653:88.0 56040503:0.0 82363777:1.0 111972721:88.0 203757181:1.0 1169676869:0.0 2026591854:1.0 
58.100674547221686 3556653:102.0 56040503:1.0 111972721:102.0 2026591854:1.0 
2.2327172273227185 -879134437:1.0 -587393212:1.0 -466984923:285.0 -157200862:1.0 3556653:56.0 56040503:4.0 82363777:1.0 111972721:56.0 1169676869:1.0 1615135971:1.0 
23.973759960631458 -879134437:0.0 -466984923:21.0 -409125442:1.0 3222500:1.0 3556653:64.0 56040503:0.0 82363777:1.0 111972721:64.0 1169676869:0.0 2026591854:1.0 
1.2759037286121875 -1162845261:1.0 -879134437:2.0 -785182532:1.0 -466984923:1107.0 3556653:83.0 56040503:569.0 82363777:1.0 111972721:83.0 203757181:1.0 1169676869:1.0 
276.55732260484695 -587393212:1.0 -157200862:1.0 3556653:57.0 56040503:4.0 111972721:57.0 
1.2759530385018565 -1600162100:1.0 -879134437:0.0 -466984923:352.0 3556653:180.0 56040503:1.0 82363777:3.0 111972721:180.0 203757181:1.0 1169676869:3.0 
1.2700581383761245 -1197738772:1.0 -879134437:1.0 -466984923:128.0 3222500:1.0 3556653:178.0 82363777:1.0 111972721:178.0 228370190:1.0 1169676869:1.0 1297593934:1.0 
3.8977127246291148 -1197738772:1.0 -879134437:1.0 -466984923:154.0 3222500:1.0 3556653:97.0 82363777:1.0 111972721:97.0 228370190:1.0 1169676869:2.0 1297593934:1.0 
19.083464965703694 -879134437:2.0 -466984923:151.0 3556653:68.0 82363777:2.0 111972721:68.0 203757181:1.0 682028187:1.0 992509796:1.0 1169676869:1.0 
487.20271347600277 3556653:91.0 56040503:0.0 111972721:91.0 2026591854:1.0 
4.176380423770395 -1907239892:1.0 -1197675034:1.0 -879134437:1.0 -466984923:85.0 103948:1.0 103962:1.0 3556653:98.0 82363777:1.0 111972721:98.0 1169676869:1.0 1525402691:1.0 
4.262848316597215 -1907150173:1.0 -879134437:2.0 -466984923:140.0 3556653:100.0 82363777:1.0 111972721:100.0 1169676869:2.0 1280695417:1.0 1615135971:1.0 
1.2758995223105385 -1600162100:1.0 -879134437:0.0 -466984923:607.0 3556653:5.2270543E7 56040503:1.0 82363777:0.0 111972721:70.0 1169676869:0.0 1615135971:1.0 
10.048732497836443 -1907150173:1.0 -879134437:1.0 -466984923:117.0 3556653:98.0 82363777:1.0 111972721:98.0 1169676869:2.0 1280695417:1.0 1615135971:1.0 
1.038506736366939 -1907150173:1.0 -879134437:1.0 -466984923:144.0 3556653:128.0 82363777:1.0 111972721:128.0 1169676869:3.0 1280695417:1.0 1615135971:1.0 
0.5283635611390456 -1907150173:1.0 -879134437:1.0 -466984923:148.0 3556653:129.0 82363777:1.0 111972721:129.0 1169676869:4.0 1280695417:1.0 1615135971:1.0 
1.2760931893542664 -1600162100:1.0 -879134437:1.0 -466984923:205.0 3556653:200.0 56040503:28.0 82363777:1.0 111972721:200.0 1169676869:5.0 1615135971:1.0 
89.42384233193238 -879134437:0.0 -466984923:14.0 3223123:1.0 3556653:81.0 56040503:0.0 82363777:1.0 111972721:81.0 1169676869:0.0 2026591854:1.0 
0.8247205313036478 -1197738772:1.0 -879134437:1.0 -466984923:41.0 3222500:1.0 3556653:35.0 82363777:0.0 111972721:35.0 228370190:1.0 1169676869:1.0 1297593934:1.0 
1.5696343803028412 -879134437:2.0 -789971252:1.0 -789971238:1.0 -466984923:395.0 3556653:58.0 82363777:2.0 111972721:58.0 203757181:1.0 1169676869:1.0 
1.2591976113363967 -1197738772:1.0 -879134437:1.0 -466984923:68.0 3222500:1.0 3556653:173.0 82363777:1.0 111972721:173.0 228370190:1.0 1169676869:1.0 1297593934:1.0 
0.7539072552704551 -1197675034:1.0 -1197615638:1.0 -879134437:0.0 -466984923:149.0 3556653:28.0 82363777:2.0 99911043:1.0 111972721:28.0 1046855235:1.0 1169676869:1.0 
0.6659549125662776 -1197738772:1.0 -879134437:1.0 -466984923:41.0 3222500:1.0 3556653:27.0 82363777:0.0 111972721:27.0 228370190:1.0 1169676869:1.0 1297593934:1.0 
33.05393538113268 -1197738772:1.0 -879134437:1.0 -466984923:96.0 3222500:1.0 3556653:97.0 82363777:1.0 111972721:97.0 228370190:1.0 1169676869:2.0 1297593934:1.0 
2.379686340893581 -1197738772:1.0 -879134437:1.0 -466984923:79.0 3222500:1.0 3556653:90.0 82363777:1.0 111972721:90.0 228370190:1.0 1169676869:1.0 1297593934:1.0 
65.51470518883306 -1197738772:1.0 -879134437:2.0 -466984923:152.0 3222500:1.0 3556653:91.0 82363777:2.0 111972721:91.0 228370190:1.0 1169676869:3.0 1297593934:1.0 
1.275802393360603 -879134437:0.0 -466984923:38.0 103955:1.0 103961:1.0 3556653:200.0 82363777:0.0 111972721:200.0 1169676869:0.0 1280695574:1.0 
1.275300431981556 -879134437:0.0 -466984923:119.0 103955:1.0 103961:1.0 3556653:200.0 82363777:0.0 111972721:200.0 1169676869:1.0 1280695574:1.0 
0.4926850460360242 -879134437:0.0 -466984923:154.0 103955:1.0 103961:1.0 3556653:100.0 82363777:0.0 111972721:100.0 1169676869:2.0 1280695574:1.0 
1.272196255243621 -879134437:0.0 -466984923:188.0 103955:1.0 103961:1.0 3556653:200.0 82363777:0.0 111972721:200.0 1169676869:3.0 1280695574:1.0 
0.643404024055323 -1197738772:1.0 -879134437:2.0 -466984923:282.0 3222500:1.0 3556653:99.0 82363777:3.0 111972721:99.0 228370190:1.0 1169676869:6.0 1297593934:1.0 
1.0188630087929926 -1197738772:1.0 -879134437:2.0 -466984923:339.0 3222500:1.0 3556653:99.0 82363777:3.0 111972721:99.0 228370190:1.0 1169676869:7.0 1297593934:1.0 
0.8747728007677318 -1197738772:1.0 -879134437:3.0 -466984923:225.0 3222500:1.0 3556653:92.0 82363777:3.0 111972721:92.0 228370190:1.0 1169676869:5.0 1297593934:1.0 
0.22621733208389164 -1197738772:1.0 -879134437:3.0 -466984923:250.0 3222500:1.0 3556653:98.0 82363777:3.0 111972721:98.0 228370190:1.0 1169676869:6.0 1297593934:1.0 
1.7730896709905766 -1197738772:1.0 -879134437:3.0 -466984923:306.0 3222500:1.0 3556653:98.0 82363777:4.0 111972721:98.0 228370190:1.0 1169676869:8.0 1297593934:1.0 
1.1599332256015258 -1197738772:1.0 -879134437:3.0 -466984923:354.0 3222500:1.0 3556653:95.0 82363777:5.0 111972721:95.0 228370190:1.0 1169676869:10.0 1297593934:1.0 
1.130912675103917 -2050895006:1.0 -1051052627:1.0 -879134437:0.0 -466984923:118.0 -344806053:1.0 3556653:30.0 82363777:1.0 99896577:1.0 99911117:1.0 111972721:30.0 1169676869:1.0 1512208036:1.0 1525402691:1.0 
4.773763253827973 -879134437:0.0 -789971236:1.0 -466984923:278.0 -418488232:1.0 3556653:98.0 82363777:0.0 111972721:98.0 1169676869:0.0 
0.8255976928680365 -1907643656:1.0 -1907328950:1.0 -879134437:0.0 -466984923:98.0 -418488232:1.0 3556653:27.0 82363777:0.0 111972721:27.0 999023164:1.0 1169676869:0.0 
19.73439956161522 -1907239892:1.0 -1197738772:1.0 -1197675034:1.0 -879134437:0.0 -466984923:23.0 3222500:1.0 3556653:98.0 82363777:0.0 111972721:98.0 1169676869:0.0 
1.2765193855143309 -1198044619:1.0 -879134437:0.0 -466984923:653.0 3556653:81.0 56040503:0.0 82363777:0.0 111972721:81.0 1169676869:0.0 2026591854:1.0 
46.96878736770429 -1197738772:1.0 -879134437:1.0 -466984923:32.0 3222500:1.0 3556653:72.0 82363777:0.0 111972721:72.0 228370190:1.0 1169676869:0.0 1297593934:1.0 
55.20659498155786 -1197738772:1.0 -879134437:2.0 -466984923:105.0 3222500:1.0 3556653:76.0 82363777:1.0 111972721:76.0 228370190:1.0 1169676869:1.0 1297593934:1.0 
8.297260634696777 -1197738772:1.0 -879134437:3.0 -466984923:165.0 3222500:1.0 3556653:60.0 82363777:2.0 111972721:60.0 228370190:1.0 1169676869:2.0 1297593934:1.0 
1.2089665438658352 -879134437:1.0 -579517801:1.0 -466984923:219.0 -418488232:1.0 3556653:100.0 56040503:13.0 82363777:2.0 111972721:100.0 1169676869:1.0 
1.2292197537929161 -879134437:1.0 -466984923:332.0 -418488232:1.0 3556653:250.0 82363777:2.0 111972721:250.0 1169676869:2.0 1297593934:1.0 
0.7613966113488126 -879134437:1.0 -466984923:351.0 -418488232:1.0 3556653:250.0 82363777:2.0 111972721:250.0 1169676869:3.0 1297593934:1.0 
1.2756106929769941 -879134437:0.0 -466984923:511.0 -418488232:1.0 3556653:276.0 56040503:0.0 82363777:0.0 111972721:276.0 1169676869:0.0 2026591854:1.0 
1.8520339604246379 -1907239892:1.0 -879134437:2.0 -466984923:200.0 3556653:110.0 82363777:1.0 111972721:110.0 1169676869:1.0 1527810816:1.0 1530593462:1.0 
1.2758723358762858 -1198044619:1.0 -879134437:0.0 -466984923:1753.0 3556653:119.0 56040503:0.0 82363777:4.0 111972721:119.0 1169676869:4.0 2026591854:1.0 
1.2758014015108634 -879134437:0.0 -466984923:17.0 3556653:1.455099004E9 56040503:0.0 82363777:0.0 111972721:170.0 1169676869:1.0 1527810816:1.0 1530593462:1.0 2026591854:1.0 
1.2758488694552186 -879134437:2.0 -875537125:1.0 -466984923:370.0 -57640979:1.0 3556653:45.0 56040503:148.0 82363777:1.0 111972721:45.0 1169676869:1.0 2026591854:1.0 
1.2760515752000965 3556653:1.453251935E9 56040503:0.0 111972721:150.0 2026591854:1.0 
242.0891312126625 3556653:68.0 56040503:0.0 111972721:68.0 2026591854:1.0 
48.18734660043281 -1907239892:1.0 -879134437:1.0 -466984923:9.0 3556653:93.0 82363777:0.0 111972721:93.0 203757181:1.0 1169676869:0.0 
1.2671933343571489 -1907239892:1.0 -879134437:2.0 -466984923:201.0 3556653:183.0 82363777:1.0 111972721:183.0 1169676869:1.0 1527810816:1.0 1530593462:1.0 
51.08707091649836 -226516419:1.0 -157200862:1.0 3556653:50.0 56040503:2.0 111972721:50.0 
385.1446410912026 -587393212:1.0 -157200862:1.0 3556653:72.0 56040503:4.0 111972721:72.0 
17.808268766695964 -879134437:1.0 -466984923:59.0 3556653:100.0 82363777:0.0 111972721:100.0 203757181:1.0 1046855235:1.0 1169676869:1.0 
17.21369471753624 -879134437:1.0 -466984923:100.0 3556653:72.0 82363777:1.0 111972721:72.0 203757181:1.0 1169676869:2.0 1280695266:1.0 
1.2760332613164558 -879134437:1.0 -466984923:115.0 3556653:311.0 82363777:1.0 111972721:311.0 203757181:1.0 1169676869:3.0 1280695731:1.0 
1.2760266745700997 -879134437:0.0 -579517801:1.0 -466984923:19.0 3556653:1.451583577E9 56040503:6.0 82363777:0.0 111972721:136.0 203757181:1.0 1169676869:0.0 
3.5398047056305013 -1907239892:1.0 -879134437:2.0 -466984923:265.0 3556653:99.0 82363777:1.0 111972721:99.0 1169676869:1.0 1527810816:1.0 1530593462:1.0 
8.832199102528449 -1197738772:1.0 -879134437:2.0 -466984923:154.0 3222500:1.0 3223155:1.0 3556653:95.0 56040503:147.0 82363777:2.0 111972721:95.0 1169676869:3.0 2026591854:1.0 
1.9914545830490924 -1197738772:1.0 -879134437:3.0 -466984923:227.0 3222500:1.0 3223155:1.0 3556653:95.0 56040503:220.0 82363777:3.0 111972721:95.0 1169676869:5.0 2026591854:1.0 
1.2610340915982299 -1197738772:1.0 -879134437:4.0 -466984923:300.0 3222500:1.0 3223155:1.0 3556653:96.0 56040503:293.0 82363777:4.0 111972721:96.0 1169676869:7.0 2026591854:1.0 
1.7276181130201211 -1197738772:1.0 -879134437:4.0 -466984923:325.0 3222500:1.0 3223155:1.0 3556653:98.0 56040503:318.0 82363777:4.0 111972721:98.0 1169676869:8.0 2026591854:1.0 
0.8254746242377324 -1197738772:1.0 -879134437:4.0 -466984923:373.0 3222500:1.0 3223155:1.0 3556653:95.0 56040503:366.0 82363777:5.0 111972721:95.0 1169676869:10.0 2026591854:1.0 
15.384775627808171 -879134437:2.0 -466984923:30.0 3556653:93.0 82363777:0.0 111972721:93.0 203757181:1.0 1169676869:2.0 
1.2763012089711296 -879134437:2.0 -466984923:55.0 3556653:1.242256808E9 82363777:1.0 111972721:60.0 203757181:1.0 1169676869:3.0 
1.275889843728729 -879134437:0.0 -579517801:1.0 -466984923:27.0 3556653:1.450540894E9 56040503:2.0 82363777:0.0 111972721:122.0 203757181:1.0 1169676869:0.0 
0.7831975104643767 -1197738772:1.0 -879134437:1.0 -466984923:74.0 103962:1.0 3556653:96.0 56040503:74.0 82363777:1.0 111972721:96.0 228370190:1.0 1169676869:1.0 2026591854:1.0 
0.9965086374082652 -1197738772:1.0 -879134437:3.0 -466984923:268.0 103962:1.0 3556653:97.0 56040503:268.0 82363777:3.0 111972721:97.0 228370190:1.0 1169676869:4.0 2026591854:1.0 
40.245963301316564 -1198044619:1.0 -879134437:0.0 -466984923:4.0 -57640979:1.0 3556653:54.0 82363777:0.0 111972721:54.0 1169676869:0.0 
1.276033957225558 -1600162100:1.0 -879134437:2.0 -466984923:191.0 103965:1.0 103968:1.0 3556653:147.0 56040503:647.0 82363777:1.0 111972721:147.0 1169676869:1.0 
0.7479002747216399 -1197738772:1.0 -879134437:1.0 -466984923:81.0 3222500:1.0 3223155:1.0 3556653:100.0 56040503:74.0 82363777:1.0 111972721:100.0 1169676869:1.0 2026591854:1.0 
4.9261643448870425 -879134437:0.0 -466984923:9.0 3556653:101.0 82363777:1.0 111972721:101.0 1169676869:0.0 1527810816:1.0 1530593462:1.0 
32.53991488758189 -1051052627:1.0 3556653:41.0 111972721:41.0 
1.5224849536967735 -879134437:2.0 -466984923:242.0 3556653:99.0 82363777:1.0 111972721:99.0 471831720:1.0 1169676869:1.0 1527810816:1.0 1530593462:1.0 
2.5537599819643506 -879134437:2.0 -466984923:360.0 3556653:97.0 82363777:1.0 111972721:97.0 1046855235:1.0 1169676869:1.0 1527810816:1.0 1530593462:1.0 
1.2760493523936067 -1197738772:1.0 -879134437:1.0 -466984923:154.0 103962:1.0 3556653:28.0 56040503:154.0 82363777:0.0 111972721:28.0 228370190:1.0 1169676869:1.0 2026591854:1.0 
1.115672352139441 -1197738772:1.0 -879134437:1.0 -466984923:186.0 103962:1.0 3556653:95.0 56040503:186.0 82363777:1.0 111972721:95.0 228370190:1.0 1169676869:2.0 2026591854:1.0 
0.8429569863760883 -1197738772:1.0 -879134437:2.0 -466984923:371.0 103962:1.0 3556653:96.0 56040503:371.0 82363777:2.0 111972721:96.0 228370190:1.0 1169676869:4.0 2026591854:1.0 
10.694975150186796 -879134437:1.0 -466984923:56.0 3556653:70.0 82363777:1.0 111972721:70.0 1169676869:2.0 1280695076:1.0 1527810816:1.0 1530593462:1.0 
4.746981969150288 -879134437:1.0 -466984923:59.0 3556653:109.0 82363777:1.0 111972721:109.0 1169676869:3.0 1280695076:1.0 1527810816:1.0 1530593462:1.0 
1.2761507023939722 -879134437:1.0 -785182532:1.0 -466984923:417.0 3222923:1.0 3556653:59.0 56040503:34.0 82363777:2.0 111972721:59.0 1169676869:1.0 
1.8666687352107858 -879134437:0.0 -789971236:1.0 -466984923:198.0 3222923:1.0 3556653:118.0 82363777:0.0 111972721:118.0 1169676869:0.0 
25.2945315827635 -879134437:0.0 -466984923:41.0 3223123:1.0 3556653:100.0 82363777:0.0 111972721:100.0 471831720:1.0 1169676869:0.0 
3.1728227723506914 -879134437:0.0 -466984923:6.0 -418488232:1.0 3556653:31.0 82363777:0.0 111972721:31.0 1169676869:0.0 
1.2737118953334574 -1907116758:1.0 -879134437:0.0 -466984923:67.0 3556653:29.0 82363777:0.0 111972721:29.0 203757181:1.0 1169676869:0.0 
1.1864681151630927 -879134437:1.0 -579517801:1.0 -466984923:112.0 3556653:29.0 56040503:18.0 82363777:0.0 111972721:29.0 203757181:1.0 1169676869:1.0 
0.6694396098044142 -879134437:1.0 -466984923:153.0 3556653:29.0 82363777:0.0 111972721:29.0 203757181:1.0 1169676869:3.0 1213021062:1.0 
1.2140701972689898 -879134437:1.0 -466984923:194.0 3556653:29.0 82363777:0.0 111972721:29.0 203757181:1.0 682028187:1.0 992509796:1.0 1169676869:4.0 
1.177730146471094 -879134437:1.0 -466984923:285.0 3556653:29.0 82363777:1.0 111972721:29.0 203757181:1.0 1169676869:5.0 1297593934:1.0 
0.8421811119837089 -879134437:1.0 -466984923:330.0 3556653:29.0 82363777:1.0 111972721:29.0 203757181:1.0 1046841704:1.0 1169676869:6.0 
1.276039764017565 -1907239892:1.0 -879134437:1.0 -466984923:374.0 3556653:29.0 82363777:1.0 111972721:29.0 203757181:1.0 1169676869:7.0 
1.0257537365744775 -1907239892:1.0 -879134437:2.0 -466984923:333.0 3556653:99.0 82363777:1.0 111972721:99.0 1169676869:2.0 1527810816:1.0 1530593462:1.0 
0.7056065316822668 -879134437:0.0 -466984923:32.0 3556653:30.0 82363777:0.0 111972721:30.0 1005704451:1.0 1169676869:0.0 1280695487:1.0 1527810816:1.0 1530593462:1.0 
3.7315852636685056 -879134437:1.0 -466984923:62.0 3556653:96.0 82363777:1.0 111972721:96.0 1169676869:2.0 1280695574:1.0 1615135971:1.0 
9.205076204033546 -1907239892:1.0 3556653:90.0 111972721:90.0 
423.3335750024926 -1600162100:1.0 3556653:104.0 56040503:4.0 111972721:104.0 
1.2759014723107158 -1198044619:1.0 -879134437:0.0 -466984923:976.0 3556653:66.0 82363777:0.0 111972721:66.0 1169676869:0.0 1280695266:1.0 
47.60382553843202 -1600162100:1.0 -879134437:0.0 -466984923:8.0 3556653:76.0 56040503:1.0 82363777:0.0 111972721:76.0 1169676869:0.0 1527810816:1.0 1530593462:1.0 
1.275985300295527 -879134437:2.0 -579517801:1.0 -466984923:213.0 103961:1.0 3556653:118.0 56040503:59.0 82363777:1.0 111972721:118.0 1169676869:1.0 
1.2760689917163908 -879134437:2.0 -466984923:284.0 103961:1.0 3556653:1511334.0 82363777:1.0 111972721:140.0 1046857707:1.0 1169676869:2.0 
1.277048524524673 -879134437:2.0 -579517801:1.0 -466984923:326.0 103961:1.0 3556653:120.0 56040503:31.0 82363777:1.0 111972721:120.0 1169676869:4.0 
1.2759364602814351 -1600162100:1.0 -1197738772:1.0 -1197675034:1.0 -879134437:1.0 -466984923:3907.0 3222500:1.0 3556653:50.0 56040503:2.0 82363777:1.0 111972721:50.0 1169676869:2.0 
1.275816551770506 -1197738772:1.0 -879134437:1.0 -466984923:128.0 3222500:1.0 3556653:227.0 82363777:2.0 111972721:227.0 228370190:1.0 1169676869:2.0 1297593934:1.0 
7.210457893995997 -579517801:1.0 -157200862:1.0 3556653:55.0 56040503:23.0 111972721:55.0 
1.1784128212407072 -879134437:2.0 -466984923:268.0 3556653:31.0 82363777:1.0 111972721:31.0 1046841704:1.0 1169676869:1.0 1530593462:1.0 
15.043240716168526 -1600162100:1.0 -879134437:0.0 -466984923:38.0 3556653:56.0 56040503:6.0 82363777:2.0 111972721:56.0 203757181:1.0 1169676869:1.0 
7.898968707982562 -1600162100:1.0 -879134437:0.0 -466984923:41.0 3556653:75.0 56040503:9.0 82363777:2.0 111972721:75.0 203757181:1.0 1169676869:2.0 
1.3709661006291194 -1600162100:1.0 -879134437:1.0 -466984923:57.0 3556653:98.0 56040503:25.0 82363777:2.0 111972721:98.0 203757181:1.0 1169676869:3.0 
16.8745971635023 -879134437:1.0 -466984923:66.0 3556653:94.0 82363777:1.0 111972721:94.0 203757181:1.0 1046857680:1.0 1169676869:1.0 
1.3040172632665465 -1907179978:1.0 -879134437:2.0 -466984923:396.0 3556653:111.0 82363777:1.0 111972721:111.0 1169676869:1.0 1527810816:1.0 1530593462:1.0 
1.275963979147061 3556653:1.448664058E9 56040503:0.0 111972721:101.0 2026591854:1.0 
1.2877952610287957 -1197738772:1.0 -879134437:2.0 -466984923:128.0 3222500:1.0 3556653:148.0 82363777:2.0 111972721:148.0 228370190:1.0 1169676869:2.0 1297593934:1.0 
5.113637264992758 -1197738772:1.0 -879134437:1.0 -466984923:83.0 3222500:1.0 3556653:99.0 82363777:1.0 111972721:99.0 228370190:1.0 1169676869:1.0 1297593934:1.0 
0.5626300613067655 -1197738772:1.0 -879134437:1.0 -466984923:101.0 3222500:1.0 3556653:30.0 82363777:1.0 111972721:30.0 228370190:1.0 1169676869:3.0 1297593934:1.0 
0.8998109790406095 -879134437:2.0 -789971236:1.0 -466984923:360.0 3556653:250.0 82363777:1.0 111972721:250.0 203757181:1.0 1169676869:1.0 
0.6923782601898715 -1197738772:1.0 -879134437:1.0 -466984923:193.0 3222500:1.0 3223155:1.0 3556653:97.0 56040503:186.0 82363777:1.0 111972721:97.0 1169676869:1.0 2026591854:1.0 
2.123002972966998 -1197738772:1.0 -879134437:2.0 -466984923:266.0 3222500:1.0 3223155:1.0 3556653:94.0 56040503:259.0 82363777:2.0 111972721:94.0 1169676869:3.0 2026591854:1.0 
1.333668855613869 -1197738772:1.0 -879134437:1.0 -466984923:137.0 3222500:1.0 3223155:1.0 3556653:93.0 56040503:130.0 82363777:1.0 111972721:93.0 1169676869:1.0 2026591854:1.0 
0.8948688380855762 -1197738772:1.0 -879134437:1.0 -466984923:210.0 3222500:1.0 3223155:1.0 3556653:95.0 56040503:203.0 82363777:2.0 111972721:95.0 1169676869:3.0 2026591854:1.0 
1.2759790483839517 -1197738772:1.0 -879134437:2.0 -466984923:251.0 3222500:1.0 3223155:1.0 3556653:27.0 56040503:244.0 82363777:2.0 111972721:27.0 1169676869:5.0 2026591854:1.0 
1.1211536792633692 -1197738772:1.0 -879134437:2.0 -466984923:283.0 3222500:1.0 3223155:1.0 3556653:95.0 56040503:276.0 82363777:2.0 111972721:95.0 1169676869:6.0 2026591854:1.0 
0.6830048801292713 -1197738772:1.0 -879134437:3.0 -466984923:356.0 3222500:1.0 3223155:1.0 3556653:94.0 56040503:349.0 82363777:3.0 111972721:94.0 1169676869:8.0 2026591854:1.0 
0.7194440426975303 -1197738772:1.0 -879134437:3.0 -466984923:212.0 3222500:1.0 3223155:1.0 3556653:99.0 56040503:205.0 82363777:3.0 111972721:99.0 1169676869:4.0 2026591854:1.0 
0.4584559714824579 -1197738772:1.0 -879134437:3.0 -466984923:265.0 3222500:1.0 3223155:1.0 3556653:99.0 56040503:258.0 82363777:4.0 111972721:99.0 1169676869:6.0 2026591854:1.0 
1.1976591254601794 -1907176154:1.0 -879134437:2.0 -466984923:175.0 3556653:30.0 82363777:0.0 111972721:30.0 1169676869:1.0 1527810816:1.0 1530593462:1.0 
1.2760478948682419 -879134437:0.0 -789971236:1.0 -466984923:460.0 3223123:1.0 3556653:162.0 82363777:0.0 111972721:162.0 1169676869:0.0 
1.2759801362812755 -879134437:0.0 -789971236:1.0 -466984923:513.0 3223123:1.0 3556653:182.0 82363777:0.0 111972721:182.0 1169676869:1.0 
15.90788322232664 -879134437:1.0 -466984923:49.0 3223123:1.0 3556653:109.0 82363777:1.0 111972721:109.0 1169676869:1.0 1280695574:1.0 
2.948272384067384 -1907239892:1.0 -879134437:1.0 -466984923:371.0 3556653:70.0 82363777:1.0 111972721:70.0 1169676869:1.0 1615135971:1.0 
0.8149426639659966 -879134437:2.0 -466984923:284.0 3556653:92.0 82363777:1.0 111972721:92.0 203757181:1.0 1169676869:1.0 1280695731:1.0 
1.2773138992849997 -1197738772:1.0 -879134437:1.0 -466984923:109.0 3222500:1.0 3223155:1.0 3556653:116.0 56040503:102.0 82363777:1.0 111972721:116.0 1169676869:1.0 2026591854:1.0 
1.0737639006332287 -879134437:0.0 -789971236:1.0 -466984923:318.0 103955:1.0 103961:1.0 3556653:132.0 82363777:0.0 111972721:132.0 1169676869:0.0 
0.3769378370270108 -879134437:0.0 -789971236:1.0 -466984923:328.0 103955:1.0 103961:1.0 3556653:134.0 82363777:0.0 111972721:134.0 1169676869:1.0 
1.040095398691221 -879134437:0.0 -789971236:1.0 -466984923:338.0 103955:1.0 103961:1.0 3556653:132.0 82363777:0.0 111972721:132.0 1169676869:2.0 
1.245113722217156 -879134437:0.0 -789971236:1.0 -466984923:358.0 103955:1.0 103961:1.0 3556653:137.0 82363777:0.0 111972721:137.0 1169676869:3.0 
72.8553278959829 3556653:52.0 111972721:52.0 682028187:1.0 992509796:1.0 
21.127218229131966 -587393212:1.0 -157200862:1.0 3556653:48.0 56040503:4.0 111972721:48.0 
15.81604013214027 -879134437:1.0 -466984923:78.0 3222923:1.0 3556653:67.0 56040503:0.0 82363777:1.0 111972721:67.0 1169676869:0.0 2026591854:1.0 
1.4283066796533062 -879134437:1.0 -466984923:312.0 3556653:65.0 82363777:1.0 99916928:1.0 111972721:65.0 1169676869:1.0 1280695076:1.0 
1.6979857957871736 -879134437:1.0 -466984923:334.0 3556653:67.0 82363777:2.0 99916928:1.0 111972721:67.0 1169676869:2.0 1280695076:1.0 
1.2596874552808655 -1197738772:1.0 -879134437:0.0 -466984923:78.0 3222500:1.0 3556653:188.0 82363777:1.0 111972721:188.0 228370190:1.0 1046855165:1.0 1169676869:1.0 
1.2705893005190196 -1197738772:1.0 -879134437:0.0 -466984923:151.0 3222500:1.0 3556653:187.0 82363777:2.0 111972721:187.0 228370190:1.0 1046855165:1.0 1169676869:3.0 
1.270086807893976 -1197738772:1.0 -879134437:1.0 -466984923:224.0 3222500:1.0 3556653:191.0 82363777:3.0 111972721:191.0 228370190:1.0 1046855165:1.0 1169676869:5.0 
1.2964630859482746 -1907109434:1.0 -879134437:1.0 -466984923:287.0 103955:1.0 103961:1.0 3556653:120.0 82363777:1.0 111972721:120.0 1169676869:0.0 
1.27641530183594 -1907109434:1.0 -879134437:1.0 -466984923:291.0 103955:1.0 103961:1.0 3556653:160.0 82363777:1.0 111972721:160.0 1169676869:1.0 
1.2763972131547678 -1600162100:1.0 -879134437:1.0 -466984923:393.0 103955:1.0 103961:1.0 3556653:142.0 56040503:24.0 82363777:1.0 111972721:142.0 1169676869:2.0 
3.789401080097212 -1197738772:1.0 -879134437:1.0 -466984923:69.0 3222500:1.0 3556653:94.0 82363777:1.0 111972721:94.0 228370190:1.0 1046855165:1.0 1169676869:1.0 
2.165849221119376 -1197738772:1.0 -879134437:2.0 -466984923:207.0 3222500:1.0 3556653:94.0 82363777:2.0 111972721:94.0 228370190:1.0 1046855165:1.0 1169676869:3.0 
213.65710909860633 -1600162100:1.0 3556653:90.0 56040503:4.0 111972721:90.0 
113.53892902441116 -1907179978:1.0 3556653:75.0 111972721:75.0 
46.34815995379694 -1907179978:1.0 3556653:120.0 111972721:120.0 
29.09256724852539 -1907116758:1.0 3556653:90.0 111972721:90.0 
16.71249930873892 -879134437:1.0 -466984923:23.0 3556653:92.0 56040503:0.0 82363777:0.0 111972721:92.0 1169676869:0.0 1527810816:1.0 1530593462:1.0 2026591854:1.0 
13.969440566467677 -879134437:1.0 -789971236:1.0 -466984923:52.0 3556653:75.0 82363777:1.0 111972721:75.0 1169676869:1.0 1527810816:1.0 1530593462:1.0 
53.93584950821555 3556653:99.0 111972721:99.0 1280695076:1.0 
0.15937867486003857 -1197738772:1.0 -879134437:1.0 -466984923:78.0 103962:1.0 3556653:99.0 56040503:78.0 82363777:1.0 111972721:99.0 228370190:1.0 1169676869:1.0 2026591854:1.0 
8.14567918060643 -879134437:2.0 -875537125:1.0 -466984923:190.0 -57640979:1.0 3556653:100.0 82363777:1.0 111972721:100.0 682028187:1.0 992509796:1.0 1169676869:1.0 
0.23836066083744975 -1907239892:1.0 -879134437:2.0 -466984923:235.0 3556653:95.0 82363777:1.0 111972721:95.0 203757181:1.0 1169676869:1.0 
7.057489276876958 -879134437:1.0 -466984923:130.0 3556653:71.0 82363777:1.0 111972721:71.0 868156669:1.0 1169676869:1.0 1527810816:1.0 1530593462:1.0 
19.513017464887238 -879134437:2.0 -466984923:65.0 3556653:60.0 56040503:1.0 82363777:0.0 111972721:60.0 1169676869:0.0 1527810816:1.0 1530593462:1.0 2026591854:1.0 
28.474334217270048 -879134437:2.0 -466984923:68.0 3556653:100.0 56040503:4.0 82363777:0.0 111972721:100.0 1169676869:1.0 1527810816:1.0 1530593462:1.0 2026591854:1.0 
12.88032965550284 -879134437:2.0 -466984923:88.0 3556653:90.0 82363777:0.0 111972721:90.0 1046857707:1.0 1169676869:2.0 1527810816:1.0 1530593462:1.0 
1.2759939061506 -879134437:2.0 -466984923:96.0 3556653:150.0 82363777:0.0 111972721:150.0 1046857707:1.0 1169676869:3.0 1527810816:1.0 1530593462:1.0 
7.045345076351597 -879134437:2.0 -466984923:109.0 3556653:60.0 82363777:0.0 111972721:60.0 1046857707:1.0 1169676869:4.0 1527810816:1.0 1530593462:1.0 
3.77696942000642 -879134437:2.0 -466984923:117.0 3556653:90.0 82363777:0.0 111972721:90.0 1046857707:1.0 1169676869:5.0 1527810816:1.0 1530593462:1.0 
0.4480873649161592 -1197738772:1.0 -879134437:3.0 -466984923:283.0 3222500:1.0 3223155:1.0 3556653:99.0 56040503:276.0 82363777:3.0 111972721:99.0 1169676869:5.0 2026591854:1.0 
0.6855817216986122 -1197738772:1.0 -879134437:4.0 -466984923:356.0 3222500:1.0 3223155:1.0 3556653:97.0 56040503:349.0 82363777:4.0 111972721:97.0 1169676869:7.0 2026591854:1.0 
7.875684918607255 -879134437:2.0 -466984923:71.0 3556653:53.0 56040503:0.0 82363777:1.0 111972721:53.0 203757181:1.0 1169676869:0.0 2026591854:1.0 
4.030011487640833 -879134437:2.0 -466984923:190.0 3556653:94.0 82363777:1.0 111972721:94.0 203757181:1.0 1046855235:1.0 1169676869:1.0 
0.3485968615657325 -879134437:2.0 -466984923:223.0 3556653:98.0 82363777:1.0 111972721:98.0 203757181:1.0 1046855235:1.0 1169676869:4.0 
2.935397914840698 -879134437:2.0 -466984923:268.0 3556653:96.0 82363777:1.0 111972721:96.0 203757181:1.0 1046855235:1.0 1169676869:6.0 
1.2830592599674522 -1197738772:1.0 -879134437:2.0 -579517801:1.0 -466984923:124.0 3556653:71.0 56040503:124.0 82363777:1.0 111972721:71.0 228370190:1.0 1169676869:1.0 1525402691:1.0 
36.519354058988085 -1198044619:1.0 -879134437:1.0 -466984923:21.0 -57640979:1.0 3556653:94.0 56040503:0.0 82363777:1.0 111972721:94.0 1169676869:0.0 2026591854:1.0 
-1.1776465661997568 -879134437:1.0 -579517801:1.0 -466984923:51.0 -157200862:1.0 103965:1.0 3556653:79.0 56040503:1.0 82363777:0.0 99896702:1.0 111972721:79.0 762648879:1.0 1169676869:0.0 1527810816:1.0 1530593462:1.0 
-3.737979150304491 -879134437:1.0 -579517801:1.0 -466984923:83.0 3556653:88.0 56040503:3.0 82363777:0.0 111972721:88.0 203757181:1.0 1169676869:0.0 
-0.719419996702714 -879134437:0.0 -875537125:1.0 -466984923:789.0 3556653:70.0 56040503:1.0 82363777:0.0 111972721:70.0 1169676869:0.0 2026591854:1.0 
-0.7190332238664086 -879134437:0.0 -875537125:1.0 -466984923:813.0 3556653:76.0 56040503:1.0 82363777:0.0 111972721:76.0 1169676869:1.0 2026591854:1.0 
-0.4663080144185272 -879134437:0.0 -875537125:1.0 -466984923:1022.0 3556653:77.0 56040503:1.0 82363777:0.0 111972721:77.0 1169676869:2.0 2026591854:1.0 
-0.28006053461564756 -1198044619:1.0 -879134437:1.0 -579517801:1.0 -466984923:186.0 -57640979:1.0 3556653:60.0 56040503:1.0 82363777:1.0 111972721:60.0 1169676869:0.0 
-35.60693573315994 -879134437:1.0 -466984923:12.0 3556653:94.0 82363777:0.0 111972721:94.0 203757181:1.0 1169676869:0.0 
-1.3234674995679436 -879134437:0.0 -579517801:1.0 -466984923:129.0 3556653:79.0 56040503:1.0 82363777:1.0 111972721:79.0 1169676869:0.0 1527810816:1.0 1530593462:1.0 
-1.9747025346829736 -879134437:2.0 -579517801:1.0 -466984923:141.0 3556653:72.0 56040503:3.0 82363777:1.0 111972721:72.0 203757181:1.0 1169676869:0.0 
-8.482444095173578 -879134437:0.0 -466984923:30.0 3556653:72.0 82363777:1.0 111972721:72.0 996001774:1.0 1169676869:0.0 1527810816:1.0 1530593462:1.0 
-0.43246307878640333 -879134437:0.0 -466984923:578.0 -418488232:1.0 3556653:72.0 56040503:1.0 82363777:1.0 111972721:72.0 1169676869:0.0 2026591854:1.0 
-0.7546005313730373 -879134437:2.0 -579517801:1.0 -466984923:331.0 3556653:116.0 56040503:4.0 82363777:1.0 111972721:116.0 1169676869:0.0 1527810816:1.0 1530593462:1.0 
-7.1394187224751375 -879134437:2.0 -466984923:21.0 3222923:1.0 3556653:65.0 82363777:0.0 111972721:65.0 1169676869:0.0 1280695631:1.0 
-0.6071794873704651 -879134437:0.0 -466984923:19.0 3223123:1.0 3556653:119.0 56040503:0.0 82363777:1.0 111972721:119.0 1169676869:0.0 2026591854:1.0 
-19.35017890550064 -1907239892:1.0 -879134437:0.0 -466984923:9.0 3556653:80.0 82363777:1.0 111972721:80.0 203757181:1.0 1169676869:0.0 
-0.7239679351217324 -1600162100:1.0 -879134437:0.0 -466984923:551.0 3556653:5.0423417E7 56040503:1.0 82363777:0.0 111972721:50.0 1169676869:0.0 1615135971:1.0 
-0.7239551830825074 -879134437:1.0 -579517801:1.0 -466984923:237.0 3556653:132.0 56040503:12.0 82363777:1.0 111972721:132.0 1169676869:0.0 1527810816:1.0 1530593462:1.0 
-0.7240075382711078 -1600161731:1.0 -879134437:1.0 -714160322:1.0 -579517801:1.0 -466984923:1540.0 3556653:40.0 56040503:1.0 82363777:1.0 111972721:40.0 1169676869:1.0 1527810816:1.0 1530593462:1.0 
-0.11592105504033925 -879134437:1.0 -579517801:1.0 -466984923:120.0 3556653:86.0 56040503:12.0 82363777:1.0 111972721:86.0 1169676869:0.0 1527810816:1.0 1530593462:1.0 
-0.15151714191513874 -1198044619:1.0 -879134437:0.0 -579517801:1.0 -466984923:177.0 -57640979:1.0 3556653:76.0 56040503:11.0 82363777:1.0 111972721:76.0 1169676869:0.0 
-4.024362241673731 -879134437:0.0 -587393212:1.0 -466984923:59.0 -157200862:1.0 3556653:108.0 56040503:2.0 82363777:1.0 111972721:108.0 203757181:1.0 1169676869:0.0 
-11.258408144883806 -1600162100:1.0 -879134437:0.0 -466984923:25.0 3556653:92.0 56040503:1.0 82363777:1.0 111972721:92.0 203757181:1.0 1169676869:0.0 
-28.87430239618887 -879134437:1.0 -466984923:23.0 3222923:1.0 3556653:95.0 82363777:1.0 111972721:95.0 1169676869:0.0 1297593934:1.0 
-5.85244396121548 -879134437:2.0 -466984923:56.0 3222923:1.0 3556653:98.0 82363777:1.0 111972721:98.0 1169676869:1.0 1280695731:1.0 
-3.4556664385253373 -879134437:0.0 -789971231:1.0 -466984923:16.0 3223123:1.0 3556653:100.0 82363777:1.0 111972721:100.0 1169676869:0.0 
-1.9600720900115827 -879134437:2.0 -579517801:1.0 -466984923:369.0 3556653:76.0 56040503:2.0 82363777:0.0 111972721:76.0 1169676869:0.0 1615135971:1.0 
-1.6103469506383727 -1198044619:1.0 -879134437:0.0 -579517801:1.0 -466984923:116.0 -57640979:1.0 3556653:104.0 56040503:1.0 82363777:1.0 111972721:104.0 1169676869:0.0 
-10.651121058085902 -879134437:0.0 -579517801:1.0 -466984923:72.0 103961:1.0 3556653:97.0 56040503:3.0 82363777:0.0 111972721:97.0 1169676869:0.0 
-0.20954575792946914 -879134437:2.0 -579517801:1.0 -466984923:141.0 3556653:47.0 56040503:3.0 82363777:1.0 111972721:47.0 203757181:1.0 1169676869:0.0 
-3.282104672169426 -879134437:0.0 -466984923:5.0 3556653:68.0 56040503:1.0 82363777:0.0 111972721:68.0 1169676869:0.0 1615135971:1.0 2026591854:1.0 
-0.26705601716171584 -879134437:2.0 -579517801:1.0 -466984923:177.0 3556653:81.0 56040503:13.0 82363777:0.0 111972721:81.0 1169676869:0.0 1530593462:1.0 
-0.27252615017216636 -879134437:2.0 -579517801:1.0 -466984923:177.0 3556653:87.0 56040503:13.0 82363777:0.0 111972721:87.0 1169676869:0.0 1530593462:1.0 
-0.7238153262045068 -879134437:0.0 -579517801:1.0 -466984923:1268.0 -418488232:1.0 3556653:71.0 56040503:2.0 82363777:0.0 111972721:71.0 1169676869:0.0 
-0.5878145751378524 -879134437:1.0 -579517801:1.0 -466984923:238.0 3556653:104.0 56040503:12.0 82363777:1.0 111972721:104.0 1169676869:0.0 1527810816:1.0 1530593462:1.0 
-0.563664483540842 -879134437:2.0 -579517801:1.0 -466984923:181.0 3556653:60.0 56040503:13.0 82363777:0.0 111972721:60.0 1169676869:0.0 1530593462:1.0 
-0.7239611575131838 -1600162100:1.0 -879134437:1.0 -466984923:176.0 -418488232:1.0 3556653:1656166.0 56040503:1.0 82363777:0.0 111972721:60.0 1169676869:0.0 
-7.37881909248038 -879134437:2.0 -579517801:1.0 -466984923:73.0 3556653:55.0 56040503:2.0 82363777:0.0 111972721:55.0 1169676869:0.0 1527810816:1.0 1530593462:1.0 
-3.8022214166884636 -879134437:0.0 -579517801:1.0 -466984923:8.0 -418488232:1.0 3556653:45.0 56040503:1.0 82363777:0.0 111972721:45.0 1169676869:0.0 
-1.8166189651455122 -879134437:2.0 -579517801:1.0 -466984923:61.0 3556653:59.0 56040503:2.0 82363777:0.0 111972721:59.0 1169676869:0.0 1527810816:1.0 1530593462:1.0 
-1.6325766909340202 -879134437:0.0 -579517801:1.0 -466984923:189.0 -418488232:1.0 3556653:88.0 56040503:1.0 82363777:0.0 111972721:88.0 1169676869:0.0 
-7.500663537520242 -879134437:2.0 -579517801:1.0 -466984923:154.0 3556653:68.0 56040503:2.0 82363777:1.0 111972721:68.0 1169676869:0.0 1527810816:1.0 1530593462:1.0 
-0.8534235736983371 -879134437:1.0 -579517801:1.0 -466984923:76.0 3556653:99.0 56040503:17.0 82363777:0.0 111972721:99.0 1169676869:0.0 1527810816:1.0 1530593462:1.0 
-0.4334657763657657 -879134437:1.0 -587393212:1.0 -466984923:573.0 -157200862:1.0 3556653:69.0 56040503:1.0 82363777:1.0 111972721:69.0 1169676869:1.0 1527810816:1.0 1530593462:1.0 
-0.7240290148448795 -879134437:0.0 -587393212:1.0 -466984923:48.0 -418488232:1.0 -157200862:1.0 3556653:5.1436364E7 56040503:2.0 82363777:0.0 111972721:63.0 1169676869:0.0 
-55.93884444751284 -879134437:0.0 -466984923:16.0 3223123:1.0 3556653:80.0 56040503:1.0 82363777:1.0 111972721:80.0 1169676869:0.0 2026591854:1.0 
-6.158579916134364 -879134437:2.0 -466984923:186.0 3222500:1.0 3222690:1.0 3223155:1.0 3556653:97.0 82363777:0.0 111972721:97.0 1046841704:1.0 1169676869:0.0 
-0.697253145651336 -879134437:2.0 -579517801:1.0 -466984923:231.0 3556653:49.0 56040503:3.0 82363777:1.0 111972721:49.0 203757181:1.0 1169676869:0.0 
-0.16434951871198386 -879134437:2.0 -579517801:1.0 -466984923:85.0 3556653:54.0 56040503:17.0 82363777:0.0 111972721:54.0 1169676869:0.0 1527810816:1.0 1530593462:1.0 
-0.044297199497909646 -1197738772:1.0 -879134437:3.0 -466984923:152.0 3222500:1.0 3556653:75.0 82363777:2.0 111972721:75.0 228370190:1.0 1169676869:2.0 1297593934:1.0 
-0.6755614928909957 -879134437:2.0 -579517801:1.0 -466984923:207.0 3556653:108.0 56040503:13.0 82363777:1.0 111972721:108.0 1169676869:0.0 1530593462:1.0 
-0.7238305549522844 -879134437:0.0 -587393212:1.0 -466984923:48.0 -418488232:1.0 -157200862:1.0 3556653:5.4385774E7 56040503:2.0 82363777:0.0 111972721:99.0 1169676869:0.0 
-0.7243735910810524 -879134437:0.0 -587393212:1.0 -466984923:48.0 -418488232:1.0 -157200862:1.0 3556653:5.4326193E7 56040503:2.0 82363777:0.0 111972721:97.0 1169676869:0.0 
-0.4341339494584255 -1600162100:1.0 -879134437:0.0 -466984923:232.0 3556653:77.0 56040503:1.0 82363777:0.0 111972721:77.0 1169676869:0.0 1615135971:1.0 
-4.5927010557687264 -879134437:0.0 -579517801:1.0 -466984923:48.0 3556653:73.0 56040503:1.0 82363777:1.0 111972721:73.0 1169676869:0.0 1527810816:1.0 1530593462:1.0 
-506.6137455592561 3556653:90.0 56040503:1.0 111972721:90.0 2026591854:1.0 
-35.41289133345886 3556653:94.0 56040503:1.0 111972721:94.0 2026591854:1.0 
-11.373876851520597 -579517801:1.0 3556653:67.0 56040503:1.0 111972721:67.0 
-0.9783444479225797 -879134437:2.0 -579517801:1.0 -466984923:57.0 3556653:69.0 56040503:1.0 82363777:0.0 111972721:69.0 1169676869:0.0 1527810816:1.0 1530593462:1.0 
-0.16913123844167569 -1197738772:1.0 -879134437:1.0 -466984923:32.0 3222500:1.0 3556653:94.0 82363777:0.0 111972721:94.0 228370190:1.0 1169676869:0.0 1297593934:1.0 
-0.4232581153216468 -1197738772:1.0 -879134437:3.0 -466984923:165.0 3222500:1.0 3556653:82.0 82363777:2.0 111972721:82.0 228370190:1.0 1169676869:2.0 1297593934:1.0 
-0.6017769216216757 -879134437:2.0 -579517801:1.0 -466984923:77.0 3556653:43.0 56040503:13.0 82363777:0.0 111972721:43.0 1169676869:0.0 1527810816:1.0 1530593462:1.0 
-0.46241188442331255 -879134437:0.0 -587393212:1.0 -466984923:214.0 -418488232:1.0 -157200862:1.0 3556653:57.0 56040503:3.0 82363777:0.0 111972721:57.0 1169676869:0.0 
-8.14960762018924 -879134437:0.0 -579517801:1.0 -466984923:53.0 3556653:72.0 56040503:2.0 82363777:1.0 111972721:72.0 1169676869:0.0 1527810816:1.0 1530593462:1.0 
-2.1779043327228664 -879134437:2.0 -579517801:1.0 -466984923:64.0 3556653:52.0 56040503:3.0 82363777:0.0 111972721:52.0 203757181:1.0 1169676869:0.0 
-6.592602858758013 -579517801:1.0 3556653:74.0 56040503:16.0 111972721:74.0 
-26.783554218237697 -1600161852:1.0 -879134437:0.0 -466984923:25.0 3223123:1.0 3556653:70.0 56040503:1.0 82363777:2.0 111972721:70.0 1169676869:0.0 
-0.11797241161170696 -879134437:0.0 -579517801:1.0 -466984923:158.0 3556653:82.0 56040503:13.0 82363777:0.0 111972721:82.0 1169676869:0.0 1530593462:1.0 
-0.8186219719242357 -879134437:2.0 -579517801:1.0 -466984923:290.0 3556653:90.0 56040503:13.0 82363777:0.0 111972721:90.0 1169676869:1.0 1530593462:1.0 
-1.349587344134422 -879134437:2.0 -579517801:1.0 -466984923:295.0 103961:1.0 3556653:55.0 56040503:2.0 82363777:1.0 111972721:55.0 1169676869:0.0 
-2.5519804292846713 -879134437:1.0 -579517801:1.0 -466984923:27.0 3556653:73.0 56040503:1.0 82363777:0.0 111972721:73.0 1169676869:0.0 1527810816:1.0 1530593462:1.0 
-0.7219745188875085 -879134437:0.0 -579517801:1.0 -466984923:192.0 3556653:97.0 56040503:12.0 82363777:2.0 111972721:97.0 1169676869:0.0 1527810816:1.0 1530593462:1.0 
-0.7239664573642597 -879134437:0.0 -579517801:1.0 -466984923:226.0 3556653:85.0 56040503:46.0 82363777:2.0 111972721:85.0 1169676869:1.0 1527810816:1.0 1530593462:1.0 
-5.111563809864626 -1600162100:1.0 -879134437:0.0 -466984923:127.0 3556653:69.0 56040503:1.0 82363777:3.0 111972721:69.0 203757181:1.0 1169676869:2.0 
-7.379637110986158 -1197738772:1.0 -879134437:1.0 -466984923:163.0 3222500:1.0 3556653:62.0 82363777:1.0 111972721:62.0 228370190:1.0 1169676869:3.0 1297593934:1.0 
-0.2790137488117009 -879134437:0.0 -875537125:1.0 -587393212:1.0 -466984923:273.0 -157200862:1.0 3556653:76.0 56040503:6.0 82363777:1.0 111972721:76.0 1169676869:0.0 
-2.2353192564924638 -1907239892:1.0 -1197675034:1.0 -879134437:1.0 -466984923:49.0 103948:1.0 103962:1.0 3556653:100.0 82363777:0.0 111972721:100.0 1169676869:0.0 1525402691:1.0 
-0.37852034279581526 -879134437:2.0 -579517801:1.0 -466984923:95.0 3556653:50.0 56040503:8.0 82363777:1.0 111972721:50.0 1169676869:0.0 1615135971:1.0 
-1.1663682354435465 -879134437:2.0 -579517801:1.0 -466984923:241.0 103961:1.0 3556653:106.0 56040503:3.0 82363777:0.0 111972721:106.0 1169676869:0.0 
-1.0794448069394378 -1600162100:1.0 -879134437:0.0 -466984923:406.0 3556653:63.0 56040503:2.0 82363777:2.0 111972721:63.0 203757181:1.0 1169676869:1.0 1527810816:1.0 
-78.1361856646747 -587393212:1.0 -157200862:1.0 3556653:51.0 56040503:1.0 111972721:51.0 
-2.220908927269159 -1198044619:1.0 -879134437:2.0 -466984923:52.0 -57640979:1.0 3556653:108.0 56040503:2.0 82363777:0.0 111972721:108.0 1169676869:0.0 2026591854:1.0 
-0.5478914589515493 -879134437:2.0 -587393212:1.0 -466984923:120.0 -157200862:1.0 3556653:124.0 56040503:1.0 82363777:1.0 111972721:124.0 203757181:1.0 1169676869:0.0 
-2.03691076839254 -879134437:2.0 -579517801:1.0 -466984923:51.0 3556653:70.0 56040503:1.0 82363777:0.0 111972721:70.0 1169676869:0.0 1527810816:1.0 1530593462:1.0 
-0.37042142841825165 -879134437:2.0 -875537125:1.0 -579517801:1.0 -466984923:145.0 -57640979:1.0 3556653:47.0 56040503:8.0 82363777:1.0 111972721:47.0 1169676869:0.0 
-0.7239449037285356 -879134437:0.0 -587393212:1.0 -466984923:1346.0 -157200862:1.0 3556653:70.0 56040503:1.0 82363777:1.0 111972721:70.0 1169676869:0.0 1527810816:1.0 1530593462:1.0 
-0.03175507287030932 -879134437:1.0 -466984923:268.0 -418488232:1.0 3556653:73.0 56040503:2.0 82363777:0.0 111972721:73.0 1169676869:0.0 2026591854:1.0 
-0.7240457971240158 -1600162100:1.0 3556653:1685957.0 56040503:3.0 111972721:70.0 
-0.7236596986674764 -1600162100:1.0 3556653:5.3253684E7 56040503:1.0 111972721:82.0 
-0.4597727922564079 -879134437:1.0 -579517801:1.0 -466984923:131.0 3556653:120.0 56040503:14.0 82363777:1.0 111972721:120.0 1169676869:0.0 1527810816:1.0 1530593462:1.0 
-0.023955135478947558 -879134437:1.0 -579517801:1.0 -466984923:131.0 3556653:63.0 56040503:14.0 82363777:1.0 111972721:63.0 1169676869:0.0 1527810816:1.0 1530593462:1.0 
-0.7240209516284659 -1600162100:1.0 3556653:1715748.0 56040503:1.0 111972721:80.0 
-6.0519777413539995 -1198044619:1.0 -879134437:0.0 -579517801:1.0 -466984923:119.0 -57640979:1.0 3556653:95.0 56040503:2.0 82363777:1.0 111972721:95.0 1169676869:0.0 
-6.840164996815519 -1197738772:1.0 -879134437:1.0 -466984923:32.0 3222500:1.0 3556653:68.0 82363777:0.0 111972721:68.0 228370190:1.0 1169676869:0.0 1297593934:1.0 
-35.3487790362497 -1197738772:1.0 -879134437:2.0 -466984923:103.0 3222500:1.0 3556653:78.0 82363777:1.0 111972721:78.0 228370190:1.0 1169676869:2.0 1297593934:1.0 
-0.8119131565132528 -879134437:2.0 -875537125:1.0 -579517801:1.0 -466984923:151.0 -57640979:1.0 3556653:120.0 56040503:8.0 82363777:1.0 111972721:120.0 1169676869:0.0 
-0.3418268098774785 -879134437:1.0 -579517801:1.0 -466984923:131.0 3556653:114.0 56040503:14.0 82363777:1.0 111972721:114.0 1169676869:0.0 1527810816:1.0 1530593462:1.0 
-0.7806869605785631 -1197675034:1.0 -1197615638:1.0 -879134437:0.0 -466984923:129.0 3556653:132.0 82363777:1.0 99911043:1.0 111972721:132.0 1046855235:1.0 1169676869:0.0 
-2.0073586151769187 -1197675034:1.0 -1197615638:1.0 -879134437:0.0 -466984923:205.0 3556653:120.0 82363777:3.0 99911043:1.0 111972721:120.0 1046855235:1.0 1169676869:2.0 
-1.411734725101359 -1197675034:1.0 -1197615638:1.0 -879134437:2.0 -466984923:301.0 3556653:104.0 82363777:5.0 99911043:1.0 111972721:104.0 1046855235:1.0 1169676869:3.0 
-2.8065088313551443 -879134437:0.0 -466984923:22.0 103961:1.0 3556653:64.0 56040503:2.0 82363777:1.0 111972721:64.0 1169676869:0.0 2026591854:1.0 
-8.827670378684141 -1197738772:1.0 -879134437:1.0 -466984923:39.0 3222500:1.0 3556653:100.0 82363777:0.0 111972721:100.0 228370190:1.0 1169676869:0.0 1297593934:1.0 
-4.553755191277348 -1197738772:1.0 -879134437:2.0 -466984923:112.0 3222500:1.0 3556653:96.0 82363777:1.0 111972721:96.0 228370190:1.0 1169676869:2.0 1297593934:1.0 
-1.5168497858845322 3556653:108.0 56040503:2.0 111972721:108.0 2026591854:1.0 
-2.0365832505932255 -879134437:0.0 -466984923:21.0 3556653:96.0 56040503:2.0 82363777:1.0 111972721:96.0 1169676869:0.0 1527810816:1.0 1530593462:1.0 2026591854:1.0 
-0.7236429901268975 -1600162100:1.0 3556653:5.3343054E7 56040503:1.0 111972721:85.0 
-2.1232961124458396 -1197738772:1.0 -879134437:2.0 -466984923:112.0 3222500:1.0 3556653:56.0 82363777:1.0 111972721:56.0 228370190:1.0 1169676869:2.0 1297593934:1.0 
-0.29578722506925287 -1197738772:1.0 -879134437:2.0 -466984923:185.0 3222500:1.0 3556653:67.0 82363777:2.0 111972721:67.0 228370190:1.0 1169676869:4.0 1297593934:1.0 
-1.2179830782641783 -1197738772:1.0 -879134437:3.0 -466984923:372.0 3222500:1.0 3556653:62.0 82363777:3.0 111972721:62.0 228370190:1.0 1169676869:8.0 1297593934:1.0 
-17.54528816033915 -879134437:2.0 -466984923:68.0 3223123:1.0 3556653:98.0 56040503:1.0 82363777:1.0 111972721:98.0 1169676869:0.0 2026591854:1.0 
-6.317295496911295 -1197738772:1.0 -879134437:1.0 -466984923:39.0 3222500:1.0 3556653:73.0 82363777:0.0 111972721:73.0 228370190:1.0 1169676869:0.0 1297593934:1.0 
-4.684776311260373 -1197738772:1.0 -879134437:2.0 -466984923:112.0 3222500:1.0 3556653:75.0 82363777:1.0 111972721:75.0 228370190:1.0 1169676869:2.0 1297593934:1.0 
-0.3087456343223011 -1197738772:1.0 -879134437:3.0 -466984923:185.0 3222500:1.0 3556653:76.0 82363777:2.0 111972721:76.0 228370190:1.0 1169676869:4.0 1297593934:1.0 
-0.2642680105807397 -1197738772:1.0 -879134437:3.0 -466984923:258.0 3222500:1.0 3556653:78.0 82363777:3.0 111972721:78.0 228370190:1.0 1169676869:7.0 1297593934:1.0 
-0.6958777050891066 -1197738772:1.0 -879134437:3.0 -466984923:314.0 3222500:1.0 3556653:78.0 82363777:4.0 111972721:78.0 228370190:1.0 1169676869:9.0 1297593934:1.0 
-0.062255336231035366 -1197725002:1.0 -879134437:0.0 -579517801:1.0 -466984923:23.0 -344806053:1.0 3556653:103.0 56040503:2.0 82363777:1.0 99896577:1.0 111972721:103.0 113627642:1.0 1169676869:0.0 1512208036:1.0 1525402691:1.0 
-0.42448274348608794 -1197675034:1.0 -879134437:2.0 -466984923:218.0 103948:1.0 103962:1.0 3556653:81.0 82363777:1.0 111972721:81.0 1005704451:1.0 1169676869:2.0 1280695487:1.0 1525402691:1.0 
-3.822936756119129 -579517801:1.0 3556653:56.0 56040503:4.0 111972721:56.0 
-40.81919665879251 -579517801:1.0 3556653:74.0 56040503:4.0 111972721:74.0 
-0.3072440581660782 -879134437:0.0 -579517801:1.0 -466984923:1030.0 -418488232:1.0 3556653:81.0 56040503:1.0 82363777:0.0 111972721:81.0 1169676869:0.0 
-0.31170700105728344 -879134437:1.0 -579517801:1.0 -466984923:86.0 3556653:66.0 56040503:21.0 82363777:0.0 111972721:66.0 1169676869:0.0 1527810816:1.0 1530593462:1.0 
-0.13177862024804968 -879134437:2.0 -587393212:1.0 -466984923:214.0 -157200862:1.0 3556653:64.0 56040503:6.0 82363777:1.0 111972721:64.0 1169676869:0.0 1527810816:1.0 1530593462:1.0 
-10.002317638112787 -1600162100:1.0 -879134437:2.0 -466984923:47.0 3223123:1.0 3556653:109.0 56040503:1.0 82363777:0.0 111972721:109.0 1169676869:0.0 
-3.1474814447571675 -879134437:2.0 -466984923:108.0 3556653:79.0 56040503:2.0 82363777:1.0 111972721:79.0 1169676869:0.0 1527810816:1.0 1530593462:1.0 2026591854:1.0 
-12.502325329827157 -1907239892:1.0 -879134437:2.0 -466984923:62.0 3556653:96.0 82363777:0.0 111972721:96.0 203757181:1.0 1169676869:0.0 
-0.9204194817357912 -879134437:0.0 -579517801:1.0 -466984923:47.0 3556653:117.0 56040503:3.0 82363777:1.0 111972721:117.0 1169676869:0.0 1527810816:1.0 1530593462:1.0 
-0.15053610186234864 -1907239892:1.0 -1197738772:1.0 -1197675034:1.0 -879134437:3.0 -466984923:161.0 3222500:1.0 3556653:96.0 82363777:2.0 111972721:96.0 1169676869:2.0 
-10.209637698957009 -1600162100:1.0 -879134437:0.0 -466984923:57.0 3556653:72.0 56040503:1.0 82363777:2.0 111972721:72.0 203757181:1.0 1169676869:1.0 
-0.13163564541341144 -879134437:0.0 -579517801:1.0 -466984923:180.0 -157200862:1.0 3556653:72.0 56040503:2.0 82363777:0.0 111972721:72.0 1169676869:1.0 1530593462:1.0 
-4.7829245928562685 -1907239892:1.0 -1197738772:1.0 -1197675034:1.0 -879134437:0.0 -466984923:33.0 3222500:1.0 3556653:97.0 82363777:0.0 111972721:97.0 1169676869:1.0 
-0.18126012986506837 -1197738772:1.0 -1197675034:1.0 -879134437:1.0 -466984923:136.0 3222500:1.0 3556653:80.0 56040503:0.0 82363777:3.0 111972721:80.0 1169676869:3.0 2026591854:1.0 
-29.642067522387425 -579517801:1.0 3556653:90.0 56040503:2.0 111972721:90.0 
-2.390465360277531 -579517801:1.0 3556653:59.0 56040503:22.0 111972721:59.0 
-0.5631857262096708 -1600162100:1.0 -879134437:0.0 -466984923:674.0 -418488232:1.0 3556653:64.0 56040503:3.0 82363777:2.0 111972721:64.0 1169676869:0.0 
-0.6470961454926485 -1600162100:1.0 -879134437:0.0 -466984923:697.0 -418488232:1.0 3556653:67.0 56040503:4.0 82363777:2.0 111972721:67.0 1169676869:1.0 
-0.7239604281501925 -879134437:0.0 -579517801:1.0 -466984923:733.0 3556653:93.0 56040503:2.0 82363777:0.0 111972721:93.0 1169676869:0.0 1615135971:1.0 
-1.1992890347374574 -879134437:2.0 -579517801:1.0 -466984923:136.0 3556653:102.0 56040503:1.0 82363777:1.0 111972721:102.0 203757181:1.0 1169676869:0.0 
-7.563464694663981 -879134437:0.0 -579517801:1.0 -466984923:20.0 3556653:62.0 56040503:1.0 82363777:1.0 111972721:62.0 1169676869:0.0 1527810816:1.0 1530593462:1.0 
-3.1078793587688684 -1907239892:1.0 -879134437:0.0 -466984923:27.0 103961:1.0 3556653:69.0 82363777:1.0 111972721:69.0 1169676869:0.0 
-0.9245808937357587 -879134437:2.0 -579517801:1.0 -466984923:178.0 3556653:50.0 56040503:1.0 82363777:1.0 111972721:50.0 203757181:1.0 1169676869:0.0 
-1.4539137600617262 -1907239892:1.0 -1197738772:1.0 -1197675034:1.0 -879134437:2.0 -466984923:113.0 3222500:1.0 3556653:102.0 82363777:1.0 111972721:102.0 1169676869:1.0 
-0.6440901571224954 -879134437:0.0 -466984923:14.0 3556653:65.0 56040503:1.0 82363777:1.0 111972721:65.0 1169676869:0.0 1527810816:1.0 1530593462:1.0 2026591854:1.0 
-0.22066909372972357 -879134437:0.0 -579517801:1.0 -466984923:287.0 103961:1.0 3556653:74.0 56040503:2.0 82363777:1.0 111972721:74.0 1169676869:0.0 
-14.916608545653892 -879134437:2.0 -579517801:1.0 -466984923:64.0 3556653:60.0 56040503:2.0 82363777:0.0 111972721:60.0 203757181:1.0 1169676869:0.0 
-0.462095032280896 -1600162100:1.0 -879134437:0.0 -466984923:1023.0 -418488232:1.0 3556653:86.0 56040503:1.0 82363777:0.0 111972721:86.0 1169676869:0.0 
-0.5008379945030725 -879134437:0.0 -579517801:1.0 -466984923:197.0 3556653:56.0 56040503:2.0 82363777:1.0 111972721:56.0 203757181:1.0 1169676869:0.0 
-0.7240268114449832 -1198044619:1.0 -879134437:0.0 -466984923:821.0 3556653:135.0 56040503:0.0 82363777:1.0 111972721:135.0 1169676869:0.0 2026591854:1.0 
-0.7240105557738017 -1198044619:1.0 -879134437:0.0 -466984923:1365.0 3556653:126.0 56040503:0.0 82363777:2.0 111972721:126.0 1169676869:1.0 2026591854:1.0 
-0.7236058524266323 -1198044619:1.0 -879134437:0.0 -466984923:1585.0 3556653:115.0 56040503:0.0 82363777:2.0 111972721:115.0 1169676869:2.0 2026591854:1.0 
-0.7241956463790532 -1198044619:1.0 -879134437:0.0 -466984923:1652.0 3556653:117.0 56040503:0.0 82363777:3.0 111972721:117.0 1169676869:3.0 2026591854:1.0 
-0.7241181759475783 -1198044619:1.0 -879134437:0.0 -466984923:2027.0 3556653:115.0 56040503:0.0 82363777:5.0 111972721:115.0 1169676869:5.0 2026591854:1.0 
-366.8956344958834 -587393212:1.0 -157200862:1.0 3556653:72.0 56040503:2.0 111972721:72.0 
-62.93614858771628 3556653:73.0 56040503:3.0 111972721:73.0 2026591854:1.0 
-4.657859330762992 -879134437:2.0 -466984923:29.0 103961:1.0 3556653:94.0 56040503:2.0 82363777:0.0 111972721:94.0 1169676869:0.0 2026591854:1.0 
-0.723910108765045 -1600162100:1.0 -879134437:2.0 -466984923:573.0 3556653:53497.0 56040503:1.0 82363777:1.0 111972721:60.0 203757181:1.0 1169676869:1.0 
-0.37988223526016307 -1600162100:1.0 -879134437:2.0 -466984923:684.0 3556653:63.0 56040503:1.0 82363777:1.0 111972721:63.0 203757181:1.0 1169676869:2.0 
-20.47415949170859 -879134437:0.0 -466984923:18.0 3223123:1.0 3556653:91.0 56040503:0.0 82363777:1.0 111972721:91.0 1169676869:0.0 2026591854:1.0 
-2.5740501862487757 3556653:63.0 56040503:1.0 111972721:63.0 2026591854:1.0 
-55.29314609924303 -579517801:1.0 3556653:50.0 56040503:1.0 111972721:50.0 
-4.588856380278816 -1907239892:1.0 -1197738772:1.0 -1197675034:1.0 -879134437:1.0 -466984923:33.0 3222500:1.0 3556653:70.0 82363777:0.0 111972721:70.0 1169676869:0.0 
-4.884213552070138 -1907239892:1.0 -1197738772:1.0 -1197675034:1.0 -879134437:2.0 -466984923:97.0 3222500:1.0 3556653:70.0 82363777:1.0 111972721:70.0 1169676869:1.0 
-0.12125458223909985 -879134437:0.0 -579517801:1.0 -466984923:20.0 3556653:106.0 56040503:5.0 82363777:0.0 111972721:106.0 1169676869:0.0 1527810816:1.0 1530593462:1.0 
-0.46106777679029237 -879134437:0.0 -579517801:1.0 -466984923:235.0 -418488232:1.0 -157200862:1.0 3556653:67.0 56040503:1.0 82363777:0.0 111972721:67.0 1169676869:0.0 
-1.1880730687022458 -879134437:1.0 -579517801:1.0 -466984923:102.0 3556653:60.0 56040503:1.0 82363777:2.0 111972721:60.0 203757181:1.0 1169676869:1.0 1527810816:1.0 
-1.985976682701314 -879134437:1.0 -579517801:1.0 -466984923:20.0 3556653:91.0 56040503:1.0 82363777:0.0 111972721:91.0 1169676869:0.0 1527810816:1.0 1530593462:1.0 
-84.16048677897564 -1600162100:1.0 3556653:105.0 56040503:1.0 111972721:105.0 
-12.880204843701032 -1907239892:1.0 -1197738772:1.0 -1197675034:1.0 -879134437:1.0 -466984923:97.0 3222500:1.0 3556653:95.0 82363777:1.0 111972721:95.0 1169676869:2.0 
-2.8407005814616553 -1907239892:1.0 -1197738772:1.0 -1197675034:1.0 -879134437:2.0 -466984923:161.0 3222500:1.0 3556653:98.0 82363777:2.0 111972721:98.0 1169676869:3.0 
-11.7495206707059 -879134437:1.0 -579517801:1.0 -466984923:69.0 3556653:92.0 56040503:1.0 82363777:1.0 111972721:92.0 1169676869:0.0 1527810816:1.0 1530593462:1.0 
-0.7240790101682513 -1600162100:1.0 3556653:1745539.0 56040503:3.0 111972721:90.0 
-0.30400156677699286 -1198044619:1.0 -879134437:0.0 -466984923:27.0 3556653:103.0 56040503:1.0 82363777:1.0 111972721:103.0 1169676869:0.0 2026591854:1.0 
-5.048152897113368 -1198044619:1.0 -879134437:0.0 -466984923:97.0 3556653:101.0 56040503:1.0 82363777:2.0 111972721:101.0 1169676869:1.0 2026591854:1.0 
-0.724070511935727 -879134437:0.0 -587393212:1.0 -466984923:1247.0 -418488232:1.0 -157200862:1.0 3556653:116.0 56040503:17.0 82363777:0.0 111972721:116.0 1169676869:0.0 
-16.25257294752019 -1600162100:1.0 3556653:76.0 56040503:1.0 111972721:76.0 
-6.122630310237671 -879134437:1.0 -466984923:29.0 3556653:96.0 56040503:1.0 82363777:0.0 111972721:96.0 203757181:1.0 1169676869:0.0 2026591854:1.0 
-0.6988942574674923 -1600162100:1.0 -879134437:0.0 -466984923:255.0 -418488232:1.0 3556653:50.0 56040503:1.0 82363777:0.0 111972721:50.0 1169676869:0.0 
-8.490783285629744 -1197738772:1.0 -879134437:2.0 -466984923:272.0 3222500:1.0 3556653:98.0 82363777:1.0 111972721:98.0 228370190:1.0 1169676869:1.0 1297593934:1.0 
-0.07166520050166618 -879134437:1.0 -579517801:1.0 -466984923:42.0 3556653:87.0 56040503:11.0 82363777:0.0 111972721:87.0 1169676869:0.0 1527810816:1.0 1530593462:1.0 
-2.1539885223045276 -879134437:2.0 -466984923:206.0 3222923:1.0 3556653:89.0 56040503:1.0 82363777:1.0 111972721:89.0 1169676869:0.0 2026591854:1.0 
-0.723962302258922 -879134437:2.0 -466984923:5711.0 3223123:1.0 3556653:64.0 56040503:7.0 82363777:1.0 111972721:64.0 1169676869:0.0 2026591854:1.0 
-2.4523521754794206 -1907239892:1.0 -1197738772:1.0 -1197675034:1.0 -879134437:2.0 -466984923:57.0 3222500:1.0 3556653:67.0 82363777:0.0 111972721:67.0 1169676869:0.0 
-10.617703380593584 -226516419:1.0 -157200862:1.0 3556653:54.0 56040503:9.0 111972721:54.0 
-5.592368412976712 -879134437:2.0 -466984923:55.0 3556653:77.0 56040503:1.0 82363777:0.0 111972721:77.0 1169676869:0.0 1527810816:1.0 1530593462:1.0 2026591854:1.0 
-389.7816427833256 -1600162100:1.0 3556653:103.0 56040503:4.0 111972721:103.0 
-34.92380860128037 -879134437:0.0 -466984923:15.0 3556653:86.0 56040503:1.0 82363777:1.0 111972721:86.0 203757181:1.0 1169676869:0.0 2026591854:1.0 
-35.27096191821475 -1198044619:1.0 -879134437:0.0 -466984923:19.0 3556653:88.0 56040503:0.0 82363777:1.0 111972721:88.0 1169676869:0.0 2026591854:1.0 
-4.092587918457302 -879134437:1.0 -579517801:1.0 -466984923:42.0 3556653:73.0 56040503:11.0 82363777:0.0 111972721:73.0 1169676869:0.0 1527810816:1.0 1530593462:1.0 
-1.9695019855136051 -879134437:2.0 -466984923:38.0 3556653:90.0 82363777:0.0 111972721:90.0 1169676869:0.0 1527810816:1.0 1530593462:1.0 
-0.06483590387722372 -1197738772:1.0 -879134437:1.0 -466984923:41.0 3222500:1.0 3223155:1.0 3556653:96.0 56040503:34.0 82363777:0.0 111972721:96.0 1169676869:0.0 2026591854:1.0 
-0.406222495773499 -1197738772:1.0 -879134437:2.0 -466984923:114.0 3222500:1.0 3223155:1.0 3556653:83.0 56040503:107.0 82363777:1.0 111972721:83.0 1169676869:2.0 2026591854:1.0 
-1.0748077993581244 -1197738772:1.0 -879134437:3.0 -466984923:187.0 3222500:1.0 3223155:1.0 3556653:87.0 56040503:180.0 82363777:2.0 111972721:87.0 1169676869:4.0 2026591854:1.0 
-1.8130679005980095 -1197738772:1.0 -879134437:4.0 -466984923:260.0 3222500:1.0 3223155:1.0 3556653:92.0 56040503:253.0 82363777:3.0 111972721:92.0 1169676869:6.0 2026591854:1.0 
-1.3165984886805349 -1197738772:1.0 -879134437:4.0 -466984923:333.0 3222500:1.0 3223155:1.0 3556653:100.0 56040503:326.0 82363777:4.0 111972721:100.0 1169676869:9.0 2026591854:1.0 
-0.37637916416582334 -879134437:2.0 -466984923:14.0 3556653:80.0 82363777:0.0 111972721:80.0 203757181:1.0 1169676869:0.0 
-0.7240522746361348 -879134437:2.0 -466984923:17.0 3556653:1508451.0 82363777:0.0 111972721:110.0 203757181:1.0 1169676869:1.0 
-18.12845647392849 -879134437:1.0 -466984923:11.0 3556653:79.0 56040503:1.0 82363777:0.0 111972721:79.0 1169676869:0.0 1527810816:1.0 1530593462:1.0 2026591854:1.0 
-0.685813221541011 -1197738772:1.0 -879134437:1.0 -466984923:34.0 103962:1.0 3556653:78.0 56040503:34.0 82363777:0.0 111972721:78.0 228370190:1.0 1169676869:0.0 2026591854:1.0 
-0.6313023499119239 -1197738772:1.0 -879134437:2.0 -466984923:107.0 103962:1.0 3556653:75.0 56040503:107.0 82363777:1.0 111972721:75.0 228370190:1.0 1169676869:2.0 2026591854:1.0 
-0.6176842930130445 -1197738772:1.0 -879134437:3.0 -466984923:228.0 103962:1.0 3556653:78.0 56040503:228.0 82363777:2.0 111972721:78.0 228370190:1.0 1169676869:3.0 2026591854:1.0 
-2.865540750621099 -879134437:2.0 -579517801:1.0 -466984923:55.0 3556653:109.0 56040503:2.0 82363777:0.0 111972721:109.0 1169676869:0.0 1527810816:1.0 1530593462:1.0 
-20.36059747960249 -879134437:0.0 -579517801:1.0 -466984923:7.0 103961:1.0 3556653:54.0 56040503:2.0 82363777:0.0 111972721:54.0 1169676869:0.0 
-0.5211768845387073 -879134437:2.0 -579517801:1.0 -466984923:154.0 3556653:75.0 56040503:21.0 82363777:0.0 111972721:75.0 1169676869:0.0 1527810816:1.0 1530593462:1.0 
-0.35444472376486946 -879134437:2.0 -466984923:40.0 3556653:78.0 56040503:7.0 82363777:0.0 111972721:78.0 1169676869:0.0 1527810816:1.0 1530593462:1.0 2026591854:1.0 
-0.49343638392853584 -1600162100:1.0 -879134437:2.0 -466984923:75.0 103961:1.0 3556653:62.0 56040503:2.0 82363777:1.0 111972721:62.0 1169676869:0.0 
-0.7240565601628792 -1600162100:1.0 3556653:54458.0 56040503:1.0 111972721:70.0 
-0.7240882149818407 -1600162100:1.0 -879134437:2.0 -466984923:111.0 103965:1.0 103968:1.0 3556653:107.0 56040503:567.0 82363777:1.0 111972721:107.0 1169676869:0.0 
-7.935817189150322 -1907239892:1.0 -879134437:2.0 -466984923:43.0 3556653:102.0 82363777:0.0 111972721:102.0 203757181:1.0 1169676869:0.0 
-0.42313635623586826 -1907239892:1.0 -1197738772:1.0 -1197675034:1.0 -879134437:2.0 -466984923:123.0 3222500:1.0 3556653:84.0 82363777:0.0 111972721:84.0 1169676869:0.0 
-0.12162648295977647 -1907239892:1.0 -1197738772:1.0 -1197675034:1.0 -879134437:4.0 -466984923:189.0 3222500:1.0 3556653:69.0 82363777:1.0 111972721:69.0 1169676869:1.0 
-0.30679844177276805 -1907239892:1.0 -1197738772:1.0 -1197675034:1.0 -879134437:6.0 -466984923:255.0 3222500:1.0 3556653:71.0 82363777:2.0 111972721:71.0 1169676869:2.0 
-173.96560657105292 -1600162100:1.0 3556653:93.0 56040503:1.0 111972721:93.0 
-0.4260751284122118 -879134437:2.0 -579517801:1.0 -466984923:91.0 3556653:76.0 56040503:19.0 82363777:0.0 111972721:76.0 1169676869:0.0 1527810816:1.0 1530593462:1.0 
-9.363724081612343 -879134437:2.0 -466984923:40.0 3556653:56.0 56040503:7.0 82363777:0.0 111972721:56.0 1169676869:0.0 1527810816:1.0 1530593462:1.0 2026591854:1.0 
-3.9323143623453896 -879134437:0.0 -579517801:1.0 -466984923:14.0 -157200862:1.0 3556653:74.0 56040503:1.0 82363777:0.0 111972721:74.0 1169676869:0.0 1527810816:1.0 1530593462:1.0 
-1.3822026701287604 -879134437:2.0 -466984923:46.0 3556653:108.0 82363777:0.0 111972721:108.0 203757181:1.0 996001774:1.0 1169676869:0.0 
-0.7646426717520721 -1600162100:1.0 3556653:134.0 56040503:1.0 111972721:134.0 
-2.629248865677845 -879134437:0.0 -466984923:15.0 3556653:68.0 56040503:1.0 82363777:1.0 111972721:68.0 203757181:1.0 1169676869:0.0 2026591854:1.0 
-6.662472871841653 -879134437:2.0 -466984923:80.0 3556653:67.0 56040503:2.0 82363777:0.0 111972721:67.0 1169676869:0.0 1527810816:1.0 1530593462:1.0 2026591854:1.0 
-0.7234337048090951 -1197738772:1.0 -879134437:1.0 -466984923:146.0 103962:1.0 3556653:74.0 56040503:146.0 82363777:0.0 111972721:74.0 228370190:1.0 1169676869:0.0 2026591854:1.0 
-0.7234259838009578 -1197738772:1.0 -879134437:2.0 -466984923:331.0 103962:1.0 3556653:73.0 56040503:331.0 82363777:1.0 111972721:73.0 228370190:1.0 1169676869:3.0 2026591854:1.0 
-1.11116612691965 -879134437:0.0 -579517801:1.0 -466984923:39.0 3556653:50.0 56040503:2.0 82363777:1.0 111972721:50.0 203757181:1.0 1169676869:0.0 
-8.777962062659793 -879134437:1.0 -466984923:11.0 3222923:1.0 3556653:91.0 82363777:0.0 111972721:91.0 1169676869:0.0 
-72.6389576953812 3556653:56.0 56040503:7.0 111972721:56.0 2026591854:1.0 
-0.03381841025714446 -1907239892:1.0 -1197738772:1.0 -1197675034:1.0 -879134437:1.0 -466984923:161.0 3222500:1.0 3556653:106.0 82363777:0.0 111972721:106.0 1169676869:0.0 
-0.300123132685744 -879134437:2.0 -579517801:1.0 -466984923:106.0 3556653:72.0 56040503:19.0 82363777:0.0 111972721:72.0 1169676869:0.0 1527810816:1.0 1530593462:1.0 
-0.25585100654484433 -879134437:2.0 -579517801:1.0 -466984923:148.0 3556653:92.0 56040503:16.0 82363777:1.0 111972721:92.0 1169676869:0.0 1527810816:1.0 1530593462:1.0 
-0.7244077311885373 -1600162100:1.0 -879134437:0.0 -466984923:201.0 -418488232:1.0 3556653:1715748.0 56040503:1.0 82363777:0.0 111972721:80.0 1169676869:0.0 
-0.060758880307239714 -879134437:2.0 -579517801:1.0 -466984923:136.0 3556653:75.0 56040503:16.0 82363777:1.0 111972721:75.0 1169676869:0.0 1527810816:1.0 1530593462:1.0 
-0.6614148792868785 -879134437:1.0 -579517801:1.0 -466984923:122.0 3556653:85.0 56040503:28.0 82363777:0.0 111972721:85.0 203757181:1.0 1169676869:2.0 
-2.846960643388596 -879134437:2.0 -579517801:1.0 -466984923:101.0 3556653:98.0 56040503:2.0 82363777:1.0 111972721:98.0 1169676869:0.0 1527810816:1.0 1530593462:1.0 
-0.2804145851717853 -879134437:2.0 -579517801:1.0 -466984923:133.0 3556653:92.0 56040503:19.0 82363777:0.0 111972721:92.0 1169676869:0.0 1527810816:1.0 1530593462:1.0 
-0.3774129964968881 -879134437:2.0 -466984923:77.0 3556653:52.0 56040503:2.0 82363777:0.0 111972721:52.0 1169676869:0.0 1527810816:1.0 1530593462:1.0 2026591854:1.0 
-40.226755904839294 -1600162100:1.0 3556653:67.0 56040503:1.0 111972721:67.0 
-36.7765358504799 -579517801:1.0 3556653:107.0 56040503:2.0 111972721:107.0 
-0.07226848784727574 -1600162100:1.0 -879134437:1.0 -466984923:37.0 3556653:54.0 56040503:2.0 82363777:1.0 111972721:54.0 1169676869:0.0 1615135971:1.0 
-0.2336809804894107 -879134437:1.0 -466984923:8.0 3556653:64.0 82363777:0.0 111972721:64.0 203757181:1.0 1169676869:0.0 1280695731:1.0 
-20.030868876631928 -579517801:1.0 3556653:76.0 56040503:9.0 111972721:76.0 
-0.26392642212867395 -879134437:2.0 -466984923:140.0 103961:1.0 3556653:51.0 56040503:1.0 82363777:0.0 111972721:51.0 1169676869:0.0 2026591854:1.0 
-220.78019556721088 -587393212:1.0 -157200862:1.0 3556653:57.0 56040503:2.0 111972721:57.0 
-4.263181089905143 -1197814375:1.0 -879134437:2.0 -579517801:1.0 -466984923:84.0 3556653:98.0 56040503:3.0 82363777:0.0 85043953:1.0 111972721:98.0 203757181:1.0 1169676869:0.0 
-0.19642909256035987 -1197814375:1.0 -879134437:2.0 -579517801:1.0 -466984923:85.0 3556653:48.0 56040503:3.0 82363777:0.0 85043953:1.0 111972721:48.0 203757181:1.0 1169676869:0.0 
-0.3833677714942145 -879134437:2.0 -579517801:1.0 -466984923:128.0 3556653:76.0 56040503:13.0 82363777:0.0 111972721:76.0 1169676869:0.0 1530593462:1.0 
-3.0642167813468415 -879134437:2.0 -579517801:1.0 -466984923:110.0 3556653:58.0 56040503:1.0 82363777:1.0 111972721:58.0 203757181:1.0 1169676869:0.0 
-0.21149111753366728 -879134437:2.0 -789971231:1.0 -466984923:59.0 103961:1.0 3556653:56.0 82363777:1.0 111972721:56.0 1169676869:0.0 
-0.6180651852958472 -879134437:2.0 -579517801:1.0 -466984923:302.0 103961:1.0 3556653:60.0 56040503:7.0 82363777:1.0 111972721:60.0 1169676869:3.0 
-0.41249701830657903 -1600162100:1.0 -1197738772:1.0 -1197675034:1.0 -879134437:1.0 -466984923:334.0 3222500:1.0 3556653:78.0 56040503:1.0 82363777:1.0 111972721:78.0 1169676869:1.0 
-0.7237057734336798 -879134437:1.0 -579517801:1.0 -466984923:11.0 3223123:1.0 3556653:72.0 56040503:94.0 82363777:0.0 111972721:72.0 1169676869:0.0 
-0.7604548972668523 -879134437:2.0 -579517801:1.0 -466984923:141.0 3556653:97.0 56040503:13.0 82363777:0.0 111972721:97.0 1169676869:0.0 1530593462:1.0 
-0.4654122893379937 -879134437:0.0 -875537125:1.0 -579517801:1.0 -466984923:253.0 3556653:80.0 56040503:1.0 82363777:1.0 111972721:80.0 1169676869:0.0 
-0.0185930311210696 -1197814375:1.0 -879134437:2.0 -466984923:126.0 3556653:58.0 56040503:2.0 82363777:0.0 85043953:1.0 111972721:58.0 203757181:1.0 1169676869:0.0 2026591854:1.0 
-0.20498196464345134 -1197738772:1.0 -879134437:1.0 -466984923:92.0 3222500:1.0 3556653:115.0 82363777:1.0 111972721:115.0 228370190:1.0 1169676869:1.0 1297593934:1.0 
-0.18971053297129628 -1197738772:1.0 -879134437:1.0 -466984923:163.0 3222500:1.0 3556653:110.0 82363777:2.0 111972721:110.0 228370190:1.0 1169676869:3.0 1297593934:1.0 
-3.0239051397530288 -879134437:2.0 -466984923:197.0 3556653:103.0 56040503:5.0 82363777:0.0 111972721:103.0 1169676869:0.0 1527810816:1.0 1530593462:1.0 2026591854:1.0 
-0.3195018979600637 -879134437:2.0 -579517801:1.0 -466984923:126.0 3556653:60.0 56040503:13.0 82363777:0.0 111972721:60.0 1169676869:0.0 1530593462:1.0 
-0.2918526884948023 -1197738772:1.0 -879134437:3.0 -466984923:212.0 3222500:1.0 3556653:63.0 82363777:3.0 111972721:63.0 228370190:1.0 1169676869:3.0 1297593934:1.0 
-0.8113780236407979 -1197738772:1.0 -879134437:4.0 -466984923:272.0 3222500:1.0 3556653:60.0 82363777:4.0 111972721:60.0 228370190:1.0 1169676869:4.0 1297593934:1.0 
-19.236864974697294 -1600162100:1.0 -879134437:0.0 -466984923:5.0 3223123:1.0 3556653:91.0 56040503:1.0 82363777:0.0 111972721:91.0 1169676869:0.0 
-6.0119979023161 -1600162100:1.0 -879134437:0.0 -466984923:34.0 3556653:56.0 56040503:2.0 82363777:2.0 111972721:56.0 203757181:1.0 1169676869:0.0 
-2.8973143338575515 -1197814375:1.0 -879134437:2.0 -579517801:1.0 -466984923:84.0 3556653:89.0 56040503:3.0 82363777:0.0 85043953:1.0 111972721:89.0 203757181:1.0 1169676869:0.0 
-7.073451180606907 -1197738772:1.0 -879134437:1.0 -466984923:92.0 3222500:1.0 3556653:102.0 82363777:1.0 111972721:102.0 228370190:1.0 1169676869:1.0 1297593934:1.0 
-0.2796705594982748 -1197738772:1.0 -879134437:2.0 -466984923:152.0 3222500:1.0 3556653:112.0 82363777:2.0 111972721:112.0 228370190:1.0 1169676869:2.0 1297593934:1.0 
-0.6545803390192577 -1197738772:1.0 -879134437:3.0 -466984923:163.0 3222500:1.0 3556653:93.0 82363777:2.0 111972721:93.0 228370190:1.0 1169676869:3.0 1297593934:1.0 
-4.141007769048886 -1613960285:1.0 -879134437:2.0 -579517801:1.0 -466984923:77.0 3556653:67.0 56040503:2.0 82363777:0.0 111972721:67.0 203757181:1.0 1169676869:0.0 
-6.261441556587317 -879134437:2.0 -579517801:1.0 -466984923:73.0 3556653:101.0 56040503:2.0 82363777:0.0 111972721:101.0 1169676869:0.0 1527810816:1.0 1530593462:1.0 
-1.4307828793113395 -879134437:0.0 -466984923:17.0 3556653:106.0 56040503:1.0 82363777:1.0 111972721:106.0 203757181:1.0 1169676869:0.0 2026591854:1.0 
-3.0229309986993242 -1197738772:1.0 -879134437:2.0 -466984923:152.0 3222500:1.0 3556653:71.0 82363777:2.0 111972721:71.0 228370190:1.0 1169676869:4.0 1297593934:1.0 
-0.2772226188143337 -1197738772:1.0 -879134437:3.0 -466984923:212.0 3222500:1.0 3556653:74.0 82363777:3.0 111972721:74.0 228370190:1.0 1169676869:5.0 1297593934:1.0 
-0.32232439510149163 -1197738772:1.0 -879134437:3.0 -466984923:272.0 3222500:1.0 3556653:72.0 82363777:4.0 111972721:72.0 228370190:1.0 1169676869:7.0 1297593934:1.0 
-1.1304516270675562 -1197738772:1.0 -879134437:4.0 -466984923:332.0 3222500:1.0 3556653:73.0 82363777:5.0 111972721:73.0 228370190:1.0 1169676869:8.0 1297593934:1.0 
-0.4750634934227218 -1197738772:1.0 -879134437:5.0 -466984923:392.0 3222500:1.0 3556653:70.0 82363777:6.0 111972721:70.0 228370190:1.0 1169676869:9.0 1297593934:1.0 
-0.7239058933641968 -1600162100:1.0 -1197738772:1.0 -879134437:5.0 -466984923:605.0 3222500:1.0 3556653:60.0 56040503:1.0 82363777:6.0 111972721:60.0 228370190:1.0 1169676869:10.0 
-1.2021457676385854 -879134437:2.0 -579517801:1.0 -466984923:156.0 3556653:56.0 56040503:2.0 82363777:1.0 111972721:56.0 203757181:1.0 1169676869:0.0 
-6.598105816667845 -1600162100:1.0 -879134437:1.0 -466984923:23.0 103961:1.0 3556653:98.0 56040503:1.0 82363777:0.0 111972721:98.0 1169676869:0.0 
-8.502605019973911 -1197738772:1.0 -879134437:1.0 -466984923:153.0 3222500:1.0 3223155:1.0 3556653:95.0 56040503:146.0 82363777:0.0 111972721:95.0 1169676869:0.0 2026591854:1.0 
-0.9782530246313678 -1197738772:1.0 -879134437:2.0 -466984923:226.0 3222500:1.0 3223155:1.0 3556653:88.0 56040503:219.0 82363777:1.0 111972721:88.0 1169676869:2.0 2026591854:1.0 
-2.731747611265948 -1198044619:1.0 -879134437:1.0 -579517801:1.0 -466984923:353.0 -57640979:1.0 3556653:98.0 56040503:2.0 82363777:0.0 111972721:98.0 1169676869:0.0 
-6.068124175036355 -1197738772:1.0 -879134437:1.0 -466984923:32.0 3222500:1.0 3556653:76.0 82363777:0.0 111972721:76.0 228370190:1.0 1169676869:0.0 1297593934:1.0 
-20.5468507155314 -1197738772:1.0 -879134437:2.0 -466984923:105.0 3222500:1.0 3556653:72.0 82363777:1.0 111972721:72.0 228370190:1.0 1169676869:1.0 1297593934:1.0 
-0.7266257630831183 -1197738772:1.0 -879134437:1.0 -466984923:97.0 3222500:1.0 3223155:1.0 3556653:132.0 56040503:90.0 82363777:0.0 111972721:132.0 1169676869:0.0 2026591854:1.0 
-0.7239511514991763 -1197738772:1.0 -879134437:1.0 -466984923:170.0 3222500:1.0 3223155:1.0 3556653:140.0 56040503:163.0 82363777:1.0 111972721:140.0 1169676869:2.0 2026591854:1.0 
-0.7240635397185322 -1197738772:1.0 -879134437:2.0 -466984923:243.0 3222500:1.0 3223155:1.0 3556653:140.0 56040503:236.0 82363777:2.0 111972721:140.0 1169676869:4.0 2026591854:1.0 
-0.7236876170008157 -1197738772:1.0 -879134437:3.0 -466984923:316.0 3222500:1.0 3223155:1.0 3556653:150.0 56040503:309.0 82363777:2.0 111972721:150.0 1169676869:7.0 2026591854:1.0 
-0.72404579748688 -1197738772:1.0 -879134437:3.0 -466984923:389.0 3222500:1.0 3223155:1.0 3556653:130.0 56040503:382.0 82363777:3.0 111972721:130.0 1169676869:9.0 2026591854:1.0 
-0.5555114184912672 -1197738772:1.0 -879134437:1.0 -466984923:41.0 3222500:1.0 3223155:1.0 3556653:91.0 56040503:34.0 82363777:0.0 111972721:91.0 1169676869:0.0 2026591854:1.0 
-0.6053328103597615 -1197738772:1.0 -879134437:2.0 -466984923:114.0 3222500:1.0 3223155:1.0 3556653:92.0 56040503:107.0 82363777:1.0 111972721:92.0 1169676869:2.0 2026591854:1.0 
-0.9833052522682807 -1197738772:1.0 -879134437:3.0 -466984923:167.0 3222500:1.0 3223155:1.0 3556653:93.0 56040503:160.0 82363777:2.0 111972721:93.0 1169676869:3.0 2026591854:1.0 
-1.0674118216584827 -1197738772:1.0 -879134437:3.0 -466984923:220.0 3222500:1.0 3223155:1.0 3556653:90.0 56040503:213.0 82363777:3.0 111972721:90.0 1169676869:5.0 2026591854:1.0 
-2.002748796928616 -1197738772:1.0 -879134437:3.0 -466984923:273.0 3222500:1.0 3223155:1.0 3556653:91.0 56040503:266.0 82363777:4.0 111972721:91.0 1169676869:7.0 2026591854:1.0 
-0.12373645353575217 -879134437:2.0 -579517801:1.0 -466984923:293.0 3556653:80.0 56040503:3.0 82363777:0.0 111972721:80.0 1169676869:0.0 1615135971:1.0 
-2.8105137428032867 -1600161852:1.0 -879134437:0.0 -466984923:78.0 3556653:64.0 56040503:2.0 82363777:1.0 111972721:64.0 203757181:1.0 1169676869:0.0 
-1.8353590000627413 -1197738772:1.0 -879134437:1.0 -466984923:92.0 3222500:1.0 3556653:71.0 82363777:1.0 111972721:71.0 228370190:1.0 1169676869:1.0 1297593934:1.0 
-9.14161602765484 -1197738772:1.0 -879134437:2.0 -466984923:148.0 3222500:1.0 3556653:67.0 82363777:2.0 111972721:67.0 228370190:1.0 1169676869:2.0 1297593934:1.0 
-0.01778320693420299 -1197738772:1.0 -879134437:3.0 -466984923:208.0 3222500:1.0 3556653:69.0 82363777:3.0 111972721:69.0 228370190:1.0 1169676869:3.0 1297593934:1.0 
-0.0807909864432478 -1197738772:1.0 -879134437:3.0 -466984923:264.0 3222500:1.0 3556653:78.0 82363777:4.0 111972721:78.0 228370190:1.0 1169676869:4.0 1297593934:1.0 
-1.092964392866604 -1197738772:1.0 -879134437:4.0 -466984923:380.0 3222500:1.0 3556653:72.0 82363777:5.0 111972721:72.0 228370190:1.0 1169676869:5.0 1297593934:1.0 
-0.30617535651307015 -879134437:0.0 -579517801:1.0 -466984923:56.0 -344806053:1.0 3556653:46.0 56040503:12.0 82363777:1.0 99896577:1.0 99911117:1.0 111972721:46.0 113627642:1.0 1169676869:0.0 1512208036:1.0 1525402691:1.0 
-1.7243796044393969 -879134437:2.0 -579517801:1.0 -466984923:71.0 3556653:67.0 56040503:2.0 82363777:0.0 111972721:67.0 1169676869:0.0 1527810816:1.0 1530593462:1.0 
-2.27676343579806 -879134437:2.0 -579517801:1.0 -466984923:48.0 3556653:75.0 56040503:1.0 82363777:0.0 111972721:75.0 1169676869:0.0 1527810816:1.0 1530593462:1.0 
-0.02613710417126898 -879134437:0.0 -579517801:1.0 -466984923:106.0 -157200862:1.0 3223123:1.0 3556653:57.0 56040503:9.0 82363777:1.0 111972721:57.0 1169676869:0.0 
-0.6781215355711182 -879134437:2.0 -579517801:1.0 -466984923:124.0 3556653:57.0 56040503:29.0 82363777:0.0 111972721:57.0 1169676869:0.0 1527810816:1.0 1530593462:1.0 
-18.81439155327329 -1197738772:1.0 -879134437:1.0 -466984923:92.0 3222500:1.0 3556653:94.0 82363777:1.0 111972721:94.0 228370190:1.0 1169676869:1.0 1297593934:1.0 
-66.66538334116831 -1197738772:1.0 -879134437:1.0 -466984923:152.0 3222500:1.0 3556653:91.0 82363777:2.0 111972721:91.0 228370190:1.0 1169676869:2.0 1297593934:1.0 
-0.4633712009567342 -879134437:1.0 -579517801:1.0 -466984923:58.0 3556653:97.0 56040503:11.0 82363777:0.0 111972721:97.0 1169676869:0.0 1527810816:1.0 1530593462:1.0 
-11.535402022954093 -879134437:1.0 -466984923:8.0 3222942:1.0 3556653:77.0 82363777:0.0 111972721:77.0 1169676869:0.0 2122922366:1.0 
-0.5148616017073251 -879134437:0.0 -579517801:1.0 -466984923:45.0 3556653:100.0 56040503:3.0 82363777:1.0 111972721:100.0 1169676869:0.0 1527810816:1.0 1530593462:1.0 
-0.37084211797535194 -1600162100:1.0 3556653:1596584.0 56040503:3.0 111972721:40.0 
-0.99798780281125 -579517801:1.0 3556653:65.0 56040503:13.0 111972721:65.0 
-0.44893015305438416 -1600162100:1.0 -879134437:0.0 -466984923:138.0 3223123:1.0 3556653:102.0 56040503:4.0 82363777:1.0 111972721:102.0 1169676869:0.0 
-0.723962302258922 -1600162100:1.0 3556653:5.1495985E7 56040503:2.0 111972721:65.0 
-5.565198769556479 -879134437:0.0 -579517801:1.0 -466984923:43.0 3222923:1.0 3556653:98.0 56040503:2.0 82363777:1.0 111972721:98.0 1169676869:0.0 
-161.701137534995 3556653:68.0 56040503:2.0 111972721:68.0 2026591854:1.0 
-0.5150927899231752 -879134437:2.0 -579517801:1.0 -466984923:49.0 3556653:126.0 56040503:1.0 82363777:0.0 111972721:126.0 1169676869:0.0 1527810816:1.0 1530593462:1.0 
-0.8998246852590053 -587393212:1.0 -157200862:1.0 3556653:47.0 56040503:15.0 111972721:47.0 
-0.3644619423348003 -1600162100:1.0 3556653:1596584.0 56040503:1.0 111972721:40.0 
-0.41724909564903556 -879134437:0.0 -466984923:158.0 3556653:109.0 56040503:3.0 82363777:1.0 111972721:109.0 1169676869:0.0 1527810816:1.0 1530593462:1.0 2026591854:1.0 
-1.0073082959895137 -879134437:0.0 -579517801:1.0 -466984923:69.0 3223123:1.0 3556653:66.0 56040503:2.0 82363777:1.0 111972721:66.0 1169676869:0.0 
-3.5633351966232376 -879134437:1.0 -466984923:8.0 3223123:1.0 3556653:74.0 82363777:0.0 111972721:74.0 1169676869:0.0 
-0.37943171714160584 -879134437:2.0 -875537125:1.0 -579517801:1.0 -466984923:261.0 -57640979:1.0 3556653:65.0 56040503:2.0 82363777:0.0 111972721:65.0 1169676869:0.0 
-0.023297588041454896 -879134437:1.0 -579517801:1.0 -466984923:26.0 3556653:114.0 56040503:1.0 82363777:0.0 111972721:114.0 1169676869:0.0 1527810816:1.0 1530593462:1.0 
-0.7239484661643412 -1197738772:1.0 -879134437:2.0 -466984923:199.0 3222500:1.0 3223155:1.0 3556653:135.0 56040503:192.0 82363777:1.0 111972721:135.0 1169676869:2.0 2026591854:1.0 
-0.855473429777184 -1600162100:1.0 -879134437:2.0 -466984923:337.0 103961:1.0 3556653:90.0 56040503:1.0 82363777:1.0 111972721:90.0 1169676869:1.0 
-7.1542438604620155 -1600162100:1.0 3556653:85.0 56040503:7.0 111972721:85.0 
-0.5236604692486723 -1600162100:1.0 -879134437:0.0 -466984923:295.0 3556653:84.0 56040503:2.0 82363777:2.0 111972721:84.0 1169676869:1.0 1527810816:1.0 1530593462:1.0 
-0.36141132294091827 -1600162100:1.0 -879134437:0.0 -466984923:329.0 3556653:88.0 56040503:2.0 82363777:3.0 111972721:88.0 1169676869:2.0 1527810816:1.0 1530593462:1.0 
-11.361382195201664 -879134437:0.0 -466984923:105.0 103961:1.0 3556653:73.0 56040503:1.0 82363777:1.0 111972721:73.0 1169676869:0.0 2026591854:1.0 
-0.24729323267642037 -879134437:2.0 -579517801:1.0 -466984923:119.0 3556653:98.0 56040503:7.0 82363777:0.0 111972721:98.0 1169676869:0.0 1527810816:1.0 1530593462:1.0 
-3.8021582897771515 -579517801:1.0 3556653:59.0 56040503:11.0 111972721:59.0 
-0.9584888259532724 -579517801:1.0 3556653:68.0 56040503:19.0 111972721:68.0 
-0.933860703821694 -879134437:2.0 -579517801:1.0 -466984923:286.0 -418488232:1.0 3556653:65.0 56040503:2.0 82363777:0.0 111972721:65.0 1169676869:0.0 
-0.7240638487502903 -1600162100:1.0 -879134437:2.0 -466984923:4057.0 3556653:79.0 56040503:1.0 82363777:1.0 111972721:79.0 1169676869:1.0 1527810816:1.0 1530593462:1.0 
-0.724007253413285 -1600162100:1.0 -879134437:2.0 -466984923:4310.0 3556653:89.0 56040503:1.0 82363777:1.0 111972721:89.0 1169676869:2.0 1527810816:1.0 1530593462:1.0 
-0.7240449968516905 -1600162100:1.0 -879134437:2.0 -466984923:4628.0 3556653:88.0 56040503:1.0 82363777:1.0 111972721:88.0 1169676869:3.0 1527810816:1.0 1530593462:1.0 
-16.03585352269202 -879134437:1.0 -466984923:7.0 3556653:76.0 82363777:0.0 99916928:1.0 111972721:76.0 1169676869:0.0 
-4.1086010456117705 -1197738772:1.0 -879134437:1.0 -466984923:188.0 3222500:1.0 3556653:102.0 82363777:2.0 111972721:102.0 228370190:1.0 1046855165:1.0 1169676869:4.0 
-33.073111559134624 -1600162100:1.0 3556653:40.0 56040503:1.0 111972721:40.0 
-0.3745738928058582 -879134437:2.0 -579517801:1.0 -466984923:138.0 3556653:68.0 56040503:19.0 82363777:1.0 111972721:68.0 1169676869:0.0 1527810816:1.0 1530593462:1.0 
-0.7241951928196906 -879134437:2.0 -579517801:1.0 -466984923:461.0 -89918435:1.0 3556653:64.0 56040503:1.0 82363777:1.0 111972721:64.0 203757181:1.0 1169676869:2.0 
-30.78950353269231 -879134437:1.0 -466984923:30.0 3222923:1.0 3556653:73.0 56040503:0.0 82363777:0.0 111972721:73.0 1169676869:0.0 2026591854:1.0 
-4.085403042844637 -579517801:1.0 3556653:94.0 56040503:18.0 111972721:94.0 
-0.024761460397602394 -879134437:0.0 -875537125:1.0 -466984923:15.0 -57640979:1.0 3556653:71.0 56040503:1.0 82363777:1.0 111972721:71.0 1169676869:0.0 2026591854:1.0 
-8.9641118085877 -879134437:2.0 -579517801:1.0 -466984923:63.0 3556653:103.0 56040503:2.0 82363777:0.0 111972721:103.0 1169676869:0.0 1527810816:1.0 1530593462:1.0 
-0.7240625877375235 -879134437:2.0 -579517801:1.0 -466984923:2899.0 3223123:1.0 3556653:92.0 56040503:11.0 82363777:0.0 111972721:92.0 1169676869:0.0 
-9.812542472701974 -879134437:2.0 -579517801:1.0 -466984923:65.0 3556653:99.0 56040503:3.0 82363777:0.0 111972721:99.0 203757181:1.0 1169676869:0.0 
-0.724109911048606 -1600162100:1.0 -879134437:0.0 -466984923:327.0 -418488232:1.0 3556653:52536.0 56040503:1.0 82363777:0.0 111972721:50.0 1169676869:0.0 
-2.7458938981282155 -879134437:1.0 -466984923:138.0 -201067075:1.0 3222500:1.0 3556653:103.0 82363777:2.0 111972721:103.0 228370190:1.0 1169676869:1.0 1297593934:1.0 
-0.5755837777015943 -1197738772:1.0 -879134437:1.0 -466984923:38.0 103962:1.0 3556653:100.0 56040503:38.0 82363777:0.0 111972721:100.0 228370190:1.0 1169676869:0.0 2026591854:1.0 
-0.7240857858922691 -1600162100:1.0 -879134437:1.0 -875537125:1.0 -466984923:226.0 -57640979:1.0 3556653:270.0 56040503:1.0 82363777:0.0 111972721:270.0 1169676869:0.0 
-0.456322218392724 -879134437:2.0 -579517801:1.0 -466984923:178.0 3222923:1.0 3556653:69.0 56040503:17.0 82363777:1.0 111972721:69.0 1169676869:0.0 
-0.8638674720461418 -879134437:2.0 -579517801:1.0 -466984923:278.0 -418488232:1.0 3556653:85.0 56040503:2.0 82363777:0.0 111972721:85.0 1169676869:0.0 
-0.7239359144911919 -879134437:0.0 -579517801:1.0 -466984923:78.0 -418488232:1.0 3556653:1.595429902E9 56040503:21.0 82363777:0.0 111972721:64.0 1169676869:0.0 
-0.7242247319916925 -1600162100:1.0 3556653:195.0 56040503:1.0 111972721:195.0 
-0.7240555833964202 -1600162100:1.0 -879134437:0.0 -466984923:14.0 3556653:1509412.0 56040503:1.0 82363777:1.0 99916928:1.0 111972721:120.0 1169676869:0.0 
-0.47282538202908014 -879134437:2.0 -579517801:1.0 -466984923:222.0 3556653:71.0 56040503:10.0 82363777:0.0 111972721:71.0 203757181:1.0 1169676869:0.0 
-0.42975253148864584 -1197738772:1.0 -879134437:1.0 -466984923:41.0 3222500:1.0 3223155:1.0 3556653:64.0 56040503:34.0 82363777:0.0 111972721:64.0 1169676869:0.0 2026591854:1.0 
-0.7239174025923741 -1197738772:1.0 -879134437:2.0 -466984923:170.0 3222500:1.0 3223155:1.0 3556653:60.0 56040503:163.0 82363777:1.0 111972721:60.0 1169676869:2.0 2026591854:1.0 
-0.717404491428091 -1197738772:1.0 -879134437:3.0 -466984923:243.0 3222500:1.0 3223155:1.0 3556653:66.0 56040503:236.0 82363777:2.0 111972721:66.0 1169676869:4.0 2026591854:1.0 
-0.7238297534963188 -1197738772:1.0 -879134437:4.0 -466984923:316.0 3222500:1.0 3223155:1.0 3556653:60.0 56040503:309.0 82363777:3.0 111972721:60.0 1169676869:6.0 2026591854:1.0 
-0.4908139207189349 -879134437:2.0 -579517801:1.0 -466984923:381.0 3223123:1.0 3556653:83.0 56040503:8.0 82363777:2.0 111972721:83.0 1169676869:1.0 
-0.761065129385299 -879134437:2.0 -579517801:1.0 -466984923:268.0 -157200862:1.0 3556653:115.0 56040503:8.0 82363777:1.0 111972721:115.0 1169676869:0.0 1527810816:1.0 1530593462:1.0 
-0.44774918277338993 -1600162100:1.0 -879134437:2.0 -466984923:202.0 3556653:72.0 56040503:2.0 82363777:1.0 111972721:72.0 203757181:1.0 1169676869:0.0 
-0.7237057734336851 -1600162100:1.0 -879134437:0.0 -466984923:16.0 103961:1.0 3556653:4.6878904E7 56040503:2.0 82363777:0.0 111972721:150.0 1169676869:0.0 
-0.4924207463851122 -1197738772:1.0 -879134437:1.0 -579517801:1.0 -466984923:37.0 3556653:59.0 56040503:37.0 82363777:0.0 111972721:59.0 228370190:1.0 1169676869:0.0 1525402691:1.0 
-0.232742656976605 -879134437:0.0 -579517801:1.0 -466984923:242.0 -418488232:1.0 3556653:72.0 56040503:2.0 82363777:1.0 111972721:72.0 1169676869:0.0 
-44.37622719348442 -1600162100:1.0 3556653:120.0 56040503:1.0 111972721:120.0 
-1.245795317676688 -879134437:0.0 -579517801:1.0 -466984923:79.0 3556653:73.0 56040503:2.0 82363777:1.0 111972721:73.0 203757181:1.0 1169676869:0.0 
-0.33174218967569236 -1600162100:1.0 -879134437:1.0 -466984923:132.0 3556653:89.0 56040503:1.0 82363777:2.0 111972721:89.0 1169676869:1.0 1527810816:1.0 1530593462:1.0 
-0.7713521616887876 -879134437:0.0 -587393212:1.0 -466984923:407.0 -418488232:1.0 -157200862:1.0 3556653:123.0 56040503:2.0 82363777:0.0 111972721:123.0 1169676869:0.0 
