svm_type c_svc
kernel_type rbf
gamma 0.0078125
nr_class 2
total_sv 165
rho 0.13902174185496785
label 0 1
nr_sv 67 98
SV
1.015427870737107 -879134437:0.0 -466984923:16.0 103955:1.0 103961:1.0 3556653:40.0 82363777:0.0 111972721:40.0 1169676869:0.0 
23.25381819910896 -879134437:0.0 -466984923:19.0 103955:1.0 103961:1.0 3556653:100.0 82363777:0.0 111972721:100.0 1169676869:1.0 
0.7964813037372906 -1600162100:1.0 -879134437:0.0 -466984923:70.0 103955:1.0 103961:1.0 3556653:85.0 56040503:45.0 82363777:2.0 111972721:85.0 1169676869:2.0 
1.138997356336872 -1600162100:1.0 -879134437:0.0 -466984923:84.0 103955:1.0 103961:1.0 3556653:150.0 56040503:9.0 82363777:2.0 111972721:150.0 1169676869:3.0 
1.1387198255841156 -879134437:1.0 -466984923:292.0 103955:1.0 103961:1.0 3556653:157.0 82363777:4.0 111972721:157.0 1169676869:6.0 1280695076:1.0 
1.1388739005093478 -879134437:1.0 -466984923:324.0 103955:1.0 103961:1.0 3556653:158.0 82363777:4.0 111972721:158.0 1169676869:7.0 1280695076:1.0 
1.1391608290735904 -879134437:1.0 -466984923:335.0 103955:1.0 103961:1.0 3556653:-3.76363957E8 82363777:4.0 111972721:37.0 1169676869:8.0 1280695076:1.0 
1.1389783197890324 -879134437:0.0 -466984923:116.0 103961:1.0 3556653:1626343.0 82363777:0.0 111972721:50.0 1169676869:0.0 1280695574:1.0 
1.1391914401672065 -879134437:2.0 -466984923:56.0 3223123:1.0 3556653:52536.0 82363777:2.0 111972721:50.0 1169676869:1.0 1280695076:1.0 
1.138681947169252 -1907179978:1.0 -879134437:2.0 -466984923:119.0 3223123:1.0 3556653:4.9559445E7 82363777:2.0 111972721:42.0 1169676869:2.0 
1.1391550903015566 -879134437:0.0 -466984923:8.0 3556653:4.8755086E7 82363777:0.0 111972721:36.0 203757181:1.0 1169676869:0.0 1280695631:1.0 
0.48251885375709186 -879134437:1.0 -466984923:35.0 3556653:29.0 82363777:0.0 111972721:29.0 203757181:1.0 1169676869:3.0 1280695574:1.0 
0.6883214464740858 -879134437:1.0 -466984923:63.0 3556653:91.0 82363777:1.0 111972721:91.0 203757181:1.0 1169676869:4.0 1280695076:1.0 
0.9818590631993067 -879134437:1.0 -466984923:71.0 3556653:91.0 82363777:1.0 111972721:91.0 203757181:1.0 1169676869:5.0 1280695076:1.0 
0.5528003672994346 -879134437:2.0 -466984923:25.0 103961:1.0 3556653:27.0 82363777:0.0 111972721:27.0 1169676869:2.0 
0.6000783584973365 -879134437:2.0 -466984923:24.0 103961:1.0 3556653:43.0 82363777:0.0 111972721:43.0 1169676869:2.0 
20.290491628463705 -879134437:2.0 -466984923:28.0 103961:1.0 3556653:94.0 82363777:0.0 111972721:94.0 1169676869:3.0 
1.0775068547588198 -879134437:2.0 -466984923:116.0 103961:1.0 3556653:50.0 82363777:2.0 111972721:50.0 1169676869:4.0 
2.0880704588942294 -1600162100:1.0 -879134437:0.0 -466984923:345.0 103961:1.0 3556653:85.0 56040503:10.0 82363777:0.0 111972721:85.0 1169676869:0.0 
0.28518902132515894 -879134437:0.0 -466984923:22.0 103955:1.0 103961:1.0 3556653:30.0 82363777:0.0 111972721:30.0 1169676869:0.0 
1.2692120629742152 -1600162100:1.0 -879134437:0.0 -466984923:52.0 103955:1.0 103961:1.0 3556653:48.0 56040503:18.0 82363777:0.0 111972721:48.0 1169676869:1.0 
1.1390872230487321 -1907239892:1.0 -879134437:0.0 -466984923:247.0 3222923:1.0 3556653:134.0 82363777:0.0 111972721:134.0 1169676869:0.0 
12.300198592345527 3556653:28.0 111972721:28.0 1213021062:1.0 
0.675503551661976 -879134437:2.0 -466984923:33.0 3223123:1.0 3556653:36.0 82363777:0.0 111972721:36.0 1169676869:2.0 1280695631:1.0 
1.1172433291240933 -1907239892:1.0 -879134437:2.0 -466984923:291.0 3556653:71.0 82363777:2.0 111972721:71.0 1169676869:1.0 1527810816:1.0 1530593462:1.0 
1.119440990860731 -1907239892:1.0 -879134437:2.0 -466984923:309.0 3556653:80.0 82363777:3.0 111972721:80.0 1169676869:2.0 1527810816:1.0 1530593462:1.0 
32.54498992377439 -879134437:2.0 -789971231:1.0 -466984923:26.0 3223123:1.0 3556653:56380.0 82363777:0.0 111972721:90.0 1169676869:1.0 
1.1390825287465496 -879134437:2.0 -789971231:1.0 -466984923:39.0 3223123:1.0 3556653:53497.0 82363777:1.0 111972721:60.0 1169676869:2.0 
2.753321947936788 -879134437:2.0 -789971231:1.0 -466984923:52.0 3223123:1.0 3556653:91.0 82363777:2.0 111972721:91.0 1169676869:3.0 
1.1392987780024217 -879134437:1.0 -466984923:24.0 3556653:50614.0 82363777:0.0 111972721:30.0 1169676869:1.0 1280695574:1.0 1615135971:1.0 
1.1389561950820863 -879134437:1.0 -466984923:28.0 3556653:51575.0 82363777:0.0 111972721:40.0 1169676869:2.0 1280695574:1.0 1615135971:1.0 
15.208924766819655 -879134437:0.0 -466984923:38.0 103955:1.0 103961:1.0 3556653:100.0 82363777:0.0 111972721:100.0 1169676869:0.0 
0.3448392719559313 -879134437:2.0 -466984923:87.0 103961:1.0 3556653:96.0 82363777:2.0 111972721:96.0 1169676869:3.0 
1.139403456323893 -1907239892:1.0 -879134437:0.0 -466984923:1.0 103955:1.0 103961:1.0 3556653:185.0 82363777:0.0 111972721:185.0 1169676869:0.0 
2.171448458111613 -1907239892:1.0 -879134437:0.0 -466984923:14.0 103955:1.0 103961:1.0 3556653:120.0 82363777:0.0 111972721:120.0 1169676869:1.0 
0.46765637840594104 -879134437:1.0 -466984923:81.0 3222923:1.0 3556653:29.0 82363777:2.0 111972721:29.0 1169676869:3.0 1280695574:1.0 
1.1389715884595861 -879134437:0.0 -466984923:3.0 103955:1.0 103961:1.0 3556653:1.213626765E9 82363777:0.0 111972721:50.0 1046857680:1.0 1169676869:0.0 
7.855262051176465 -879134437:0.0 -466984923:32.0 103955:1.0 103961:1.0 3556653:50.0 82363777:0.0 111972721:50.0 1046857680:1.0 1169676869:1.0 
0.7968121715789359 -1600162100:1.0 -879134437:0.0 -466984923:80.0 103955:1.0 103961:1.0 3556653:85.0 56040503:43.0 82363777:0.0 111972721:85.0 1169676869:2.0 
1.1455186838474558 -1600162100:1.0 -879134437:0.0 -466984923:611.0 103961:1.0 3556653:90.0 56040503:2.0 82363777:0.0 111972721:90.0 1169676869:1.0 
2.24897094865978 -879134437:0.0 -466984923:36.0 103955:1.0 103961:1.0 3556653:80.0 82363777:0.0 111972721:80.0 1169676869:0.0 
2.5726038805550973 -879134437:0.0 -466984923:48.0 103955:1.0 103961:1.0 3556653:50.0 82363777:0.0 111972721:50.0 1169676869:1.0 
1.139077449259209 -879134437:0.0 -466984923:673.0 103955:1.0 103961:1.0 3556653:147.0 56040503:3.0 82363777:0.0 111972721:147.0 1169676869:2.0 2026591854:1.0 
11.728803297100074 -879134437:1.0 -466984923:35.0 3223123:1.0 3556653:94.0 82363777:1.0 111972721:94.0 1169676869:1.0 1280695076:1.0 
1.0436117307429158 -879134437:3.0 -466984923:50.0 3223123:1.0 3556653:37.0 82363777:0.0 111972721:37.0 1169676869:3.0 1280695574:1.0 
1.5481745797025621 -879134437:3.0 -466984923:94.0 3223123:1.0 3556653:97.0 82363777:2.0 111972721:97.0 1046855235:1.0 1169676869:4.0 
0.3341467084756807 -879134437:3.0 -466984923:115.0 3223123:1.0 3556653:62.0 82363777:2.0 111972721:62.0 1046855235:1.0 1169676869:5.0 
1.0370477312119928 -879134437:3.0 -466984923:118.0 3223123:1.0 3556653:65.0 82363777:2.0 111972721:65.0 1046855235:1.0 1169676869:6.0 
0.8386959268241122 -879134437:2.0 -466984923:76.0 3556653:34.0 82363777:0.0 111972721:34.0 1169676869:3.0 1213021062:1.0 1527810816:1.0 1530593462:1.0 
3.2194053647369087 -879134437:2.0 -579517801:1.0 -466984923:50.0 3556653:112.0 56040503:1.0 82363777:0.0 111972721:112.0 1169676869:0.0 1527810816:1.0 1530593462:1.0 
1.1389808972985063 -879134437:0.0 -466984923:246.0 103961:1.0 3556653:4.6729949E7 82363777:0.0 111972721:100.0 1169676869:0.0 1280695076:1.0 
1.1386828135143447 -1198044619:1.0 -879134437:2.0 -466984923:260.0 3556653:62.0 82363777:1.0 111972721:62.0 1046855165:1.0 1169676869:1.0 
1.1863824512996268 -1907150393:1.0 -1198044619:1.0 -879134437:2.0 -466984923:170.0 3556653:100.0 82363777:1.0 111972721:100.0 1169676869:1.0 
1.1394011238951678 -879134437:0.0 -579517801:1.0 -466984923:941.0 -418488232:1.0 3556653:50.0 56040503:4.0 82363777:0.0 111972721:50.0 1169676869:0.0 
64.94157536035333 -1600162100:1.0 3556653:50.0 56040503:1.0 111972721:50.0 
1.139137639897198 -1198044619:1.0 -879134437:0.0 -466984923:1868.0 3556653:53497.0 56040503:1.0 82363777:1.0 111972721:60.0 1169676869:0.0 2026591854:1.0 
1.1389326408537142 -1600162100:1.0 -1198044619:1.0 -879134437:0.0 -466984923:1804.0 -57640979:1.0 3556653:50.0 56040503:4.0 82363777:0.0 111972721:50.0 1169676869:0.0 
1.1507187185888936 -879134437:2.0 -466984923:217.0 3223123:1.0 3556653:97.0 82363777:1.0 111972721:97.0 1046855235:1.0 1169676869:1.0 
1.1136023983547727 -879134437:2.0 -466984923:244.0 3223123:1.0 3556653:94.0 82363777:1.0 111972721:94.0 1046855235:1.0 1169676869:2.0 
1.1130507602194273 -879134437:2.0 -466984923:266.0 3223123:1.0 3556653:95.0 82363777:1.0 111972721:95.0 1046855235:1.0 1169676869:3.0 
1.1951812847992918 -879134437:2.0 -466984923:295.0 3223123:1.0 3556653:98.0 82363777:1.0 111972721:98.0 1046855235:1.0 1169676869:4.0 
1.1391307602891272 -879134437:0.0 -466984923:483.0 -418488232:1.0 3556653:1.450689907E9 56040503:0.0 82363777:0.0 111972721:127.0 1169676869:1.0 2026591854:1.0 
3.063563505984621 -879134437:0.0 -466984923:63.0 -418488232:1.0 3556653:72.0 82363777:0.0 111972721:72.0 1169676869:0.0 
22.27502928271125 -1907239892:1.0 -879134437:0.0 -466984923:11.0 -418488232:1.0 3556653:85.0 82363777:0.0 111972721:85.0 1169676869:0.0 
16.904021445846794 -879134437:0.0 -466984923:30.0 -418488232:1.0 3556653:72.0 82363777:0.0 111972721:72.0 1169676869:0.0 
0.9770464467524006 -879134437:1.0 -466984923:94.0 3223123:1.0 3556653:30.0 82363777:1.0 111972721:30.0 1169676869:1.0 1280695076:1.0 
1.1396186860021995 -879134437:0.0 -466984923:160.0 -418488232:1.0 3556653:140.0 82363777:0.0 111972721:140.0 1169676869:0.0 1280695731:1.0 
-0.8461625829740504 -1600162100:1.0 -879134437:0.0 -466984923:185.0 103961:1.0 3556653:80.0 56040503:1.0 82363777:0.0 111972721:80.0 1169676869:0.0 
-0.9094194205978374 -1600162100:1.0 -879134437:0.0 -466984923:188.0 103961:1.0 3556653:96.0 56040503:4.0 82363777:0.0 111972721:96.0 1169676869:1.0 
-0.872811574194318 -879134437:0.0 -466984923:315.0 -157702848:1.0 103961:1.0 3556653:63.0 56040503:1.0 82363777:0.0 111972721:63.0 1169676869:0.0 
-0.7147461585641781 -1600162100:1.0 -879134437:0.0 -466984923:74.0 3556653:115.0 56040503:1.0 82363777:1.0 111972721:115.0 1169676869:0.0 1527810816:1.0 1530593462:1.0 
-0.3758108135552501 -1600162100:1.0 -879134437:1.0 -466984923:109.0 103955:1.0 103961:1.0 3556653:80.0 56040503:1.0 82363777:2.0 111972721:80.0 1169676869:4.0 
-0.8608991292755098 -1600162100:1.0 -879134437:1.0 -466984923:112.0 103955:1.0 103961:1.0 3556653:1507490.0 56040503:4.0 82363777:2.0 111972721:100.0 1169676869:5.0 
-0.6047973053065087 -1600162100:1.0 -879134437:0.0 -466984923:509.0 103961:1.0 3556653:100.0 56040503:2.0 82363777:0.0 111972721:100.0 1169676869:0.0 
-12.189891734002403 -1600162100:1.0 3556653:30.0 56040503:1.0 111972721:30.0 
-0.8601737936414264 -879134437:0.0 -466984923:156.0 -226516419:1.0 -157200862:1.0 103961:1.0 3556653:80.0 56040503:4.0 82363777:0.0 111972721:80.0 1169676869:0.0 
-0.8606410100889872 -879134437:1.0 -466984923:23.0 3223123:1.0 3556653:1745539.0 82363777:1.0 111972721:90.0 1169676869:0.0 1280695631:1.0 
-3.7132235202417965 -1907179978:1.0 -879134437:1.0 -466984923:7.0 103961:1.0 3556653:86.0 82363777:0.0 111972721:86.0 1169676869:0.0 
-14.517262891797582 -1600162100:1.0 -879134437:0.0 -466984923:17.0 103961:1.0 3556653:100.0 56040503:2.0 82363777:0.0 111972721:100.0 1169676869:0.0 
-64.15731763524491 -157702848:1.0 3556653:50.0 56040503:1.0 111972721:50.0 
-0.8610156794083694 -1600162100:1.0 3556653:1509412.0 56040503:1.0 111972721:120.0 
-0.5957396583858442 -879134437:1.0 -466984923:24.0 3223123:1.0 3556653:52536.0 82363777:1.0 111972721:50.0 1169676869:0.0 
-0.8263944500929205 -1600162100:1.0 -879134437:2.0 -466984923:29.0 3223123:1.0 3556653:54458.0 56040503:1.0 82363777:0.0 111972721:70.0 1169676869:0.0 
-1.819588497916413 -879134437:2.0 -466984923:18.0 103961:1.0 3556653:87.0 82363777:0.0 111972721:87.0 1169676869:1.0 
-0.8824837987326773 -1600162100:1.0 -879134437:0.0 -466984923:230.0 103961:1.0 3556653:110.0 56040503:4.0 82363777:0.0 111972721:110.0 1169676869:0.0 
-1.8328884809830273 -879134437:2.0 -466984923:23.0 103961:1.0 3556653:88.0 82363777:0.0 111972721:88.0 1169676869:1.0 
-11.338539853496162 -1600162100:1.0 -879134437:1.0 -466984923:11.0 3223123:1.0 3556653:83.0 56040503:1.0 82363777:0.0 111972721:83.0 1169676869:0.0 
-5.237803488543173 -879134437:2.0 -466984923:20.0 103961:1.0 3556653:96.0 82363777:0.0 111972721:96.0 1169676869:1.0 
-2.223470543892781 -879134437:2.0 -466984923:21.0 3223123:1.0 3556653:107.0 82363777:0.0 111972721:107.0 1169676869:0.0 1280695631:1.0 
-1.0371565647991545 -879134437:2.0 -466984923:25.0 3223123:1.0 3556653:127.0 82363777:0.0 111972721:127.0 1169676869:1.0 1280695631:1.0 
-1.5141095495147214 -1907116758:1.0 -879134437:2.0 -466984923:100.0 103961:1.0 3556653:92.0 82363777:0.0 111972721:92.0 1169676869:0.0 
-0.38617245723000304 -1907116758:1.0 -879134437:2.0 -466984923:104.0 103961:1.0 3556653:74.0 82363777:0.0 111972721:74.0 1169676869:1.0 
-0.8594105185903306 -1907116758:1.0 -879134437:2.0 -466984923:107.0 103961:1.0 3556653:123.0 82363777:0.0 111972721:123.0 1169676869:2.0 
-0.8608449096984434 -1600162100:1.0 -879134437:2.0 -466984923:26.0 103961:1.0 3556653:1685957.0 56040503:4.0 82363777:0.0 111972721:70.0 1169676869:1.0 
-0.1766198790480044 -879134437:1.0 -466984923:25.0 3556653:115.0 82363777:0.0 111972721:115.0 203757181:1.0 996001774:1.0 1169676869:0.0 
-0.8328586561651226 -879134437:2.0 -579517801:1.0 -466984923:57.0 3556653:68.0 56040503:1.0 82363777:0.0 111972721:68.0 1169676869:0.0 1527810816:1.0 1530593462:1.0 
-0.1984338387713032 3556653:105.0 56040503:1.0 111972721:105.0 2026591854:1.0 
-0.5946907235711626 -879134437:2.0 -789971231:1.0 -466984923:14.0 3223123:1.0 3556653:52536.0 82363777:0.0 111972721:50.0 1169676869:0.0 
-9.604583373904998 -1600162100:1.0 -879134437:2.0 -466984923:39.0 3222923:1.0 3556653:95.0 56040503:1.0 82363777:0.0 111972721:95.0 1169676869:0.0 
-0.7010873951167423 -879134437:2.0 -579517801:1.0 -466984923:58.0 3556653:130.0 56040503:1.0 82363777:0.0 111972721:130.0 1169676869:0.0 1527810816:1.0 1530593462:1.0 
-0.30184490163475497 -1613960285:1.0 -879134437:0.0 -466984923:11.0 3556653:50.0 82363777:1.0 111972721:50.0 203757181:1.0 1169676869:0.0 
-1.9294703610699928 -879134437:2.0 -579517801:1.0 -466984923:57.0 3556653:73.0 56040503:1.0 82363777:0.0 111972721:73.0 1169676869:0.0 1527810816:1.0 1530593462:1.0 
-0.19457391809921107 -1600162100:1.0 3556653:74.0 56040503:8.0 111972721:74.0 
-0.8607494469792918 -1600162100:1.0 -879134437:0.0 -466984923:428.0 103961:1.0 3556653:4.6789531E7 56040503:4.0 82363777:0.0 111972721:120.0 1169676869:0.0 
-17.96344384749673 -879134437:2.0 -466984923:28.0 103961:1.0 3556653:97.0 82363777:0.0 111972721:97.0 1169676869:2.0 
-0.1138281366395475 -1600162100:1.0 3556653:115.0 56040503:1.0 111972721:115.0 
-4.30052968822078 -879134437:2.0 -466984923:25.0 103961:1.0 3556653:52.0 82363777:0.0 111972721:52.0 1169676869:1.0 
-3.352909393676077 -879134437:2.0 -466984923:28.0 103961:1.0 3556653:74.0 82363777:0.0 111972721:74.0 1169676869:2.0 
-0.8610351445718637 -1600162100:1.0 3556653:4.6789531E7 56040503:1.0 111972721:120.0 
-0.8613250578432539 -1600162100:1.0 3556653:53497.0 56040503:2.0 111972721:60.0 
-0.34575469516689306 -1600162100:1.0 -879134437:1.0 -466984923:27.0 3222923:1.0 3556653:116.0 56040503:5.0 82363777:0.0 111972721:116.0 1169676869:1.0 
-0.860641885805225 -1600162100:1.0 -879134437:0.0 -466984923:488.0 103961:1.0 3556653:80.0 56040503:1.0 82363777:0.0 111972721:80.0 1169676869:0.0 
-32.39906175910159 -879134437:2.0 -466984923:25.0 103961:1.0 3556653:56380.0 82363777:0.0 111972721:90.0 1169676869:1.0 
-2.070947057574697 -879134437:0.0 -466984923:45.0 103961:1.0 3556653:117.0 56040503:0.0 82363777:0.0 111972721:117.0 1169676869:0.0 2026591854:1.0 
-2.241628172804021 -1600162100:1.0 -879134437:0.0 -466984923:26.0 3556653:88.0 56040503:1.0 82363777:1.0 111972721:88.0 1169676869:0.0 1527810816:1.0 1530593462:1.0 
-0.40651759162741113 -1600162100:1.0 -879134437:0.0 -466984923:4.0 3556653:60.0 56040503:1.0 82363777:0.0 111972721:60.0 1169676869:0.0 1527810816:1.0 1530593462:1.0 
-4.463987445524358 -879134437:1.0 -466984923:10.0 3223123:1.0 3556653:88.0 56040503:1.0 82363777:0.0 111972721:88.0 1169676869:0.0 2026591854:1.0 
-2.1434869924599003 -879134437:2.0 -579517801:1.0 -466984923:55.0 3556653:86.0 56040503:1.0 82363777:0.0 111972721:86.0 1169676869:0.0 1527810816:1.0 1530593462:1.0 
-5.585660247450653 -879134437:2.0 -579517801:1.0 -466984923:38.0 3556653:104.0 56040503:1.0 82363777:0.0 111972721:104.0 1169676869:0.0 1527810816:1.0 1530593462:1.0 
-0.15033766863810905 -879134437:2.0 -579517801:1.0 -466984923:43.0 3556653:104.0 56040503:6.0 82363777:0.0 111972721:104.0 1169676869:1.0 1527810816:1.0 1530593462:1.0 
-0.4592736439372791 -879134437:2.0 -579517801:1.0 -466984923:47.0 3556653:122.0 56040503:10.0 82363777:0.0 111972721:122.0 1169676869:2.0 1527810816:1.0 1530593462:1.0 
-0.23427740266657618 -879134437:2.0 -579517801:1.0 -466984923:57.0 3556653:86.0 56040503:1.0 82363777:0.0 111972721:86.0 1169676869:0.0 1527810816:1.0 1530593462:1.0 
-0.8607774178119277 -879134437:0.0 -587393212:1.0 -466984923:134.0 -157200862:1.0 103961:1.0 3556653:130.0 56040503:1.0 82363777:0.0 111972721:130.0 1169676869:0.0 
-8.256009771820239 -1600162100:1.0 -879134437:0.0 -466984923:28.0 103961:1.0 3556653:70.0 56040503:2.0 82363777:1.0 111972721:70.0 1169676869:0.0 
-0.7866397211664522 -1600162100:1.0 3556653:56380.0 56040503:2.0 111972721:90.0 
-0.9735234825060378 -1600162100:1.0 -879134437:0.0 -466984923:336.0 103961:1.0 3556653:90.0 56040503:1.0 82363777:1.0 111972721:90.0 1169676869:0.0 
-0.8608298555718762 -1600162100:1.0 -879134437:0.0 -466984923:339.0 103961:1.0 3556653:4.6729949E7 56040503:4.0 82363777:1.0 111972721:100.0 1169676869:1.0 
-1.8930661325560005 -879134437:0.0 -587393212:1.0 -466984923:55.0 -157200862:1.0 3556653:105.0 56040503:4.0 82363777:0.0 99916928:1.0 111972721:105.0 1169676869:1.0 
-0.6436247485375448 -879134437:0.0 -579517801:1.0 -466984923:24.0 3556653:134.0 56040503:12.0 82363777:0.0 111972721:134.0 1169676869:0.0 1527810816:1.0 1530593462:1.0 
-0.019451438156113266 -879134437:0.0 -579517801:1.0 -466984923:24.0 3556653:62.0 56040503:12.0 82363777:0.0 111972721:62.0 1169676869:0.0 1527810816:1.0 1530593462:1.0 
-6.485721657525404 -1600162100:1.0 -1198044619:1.0 -879134437:0.0 -466984923:37.0 3556653:48.0 56040503:2.0 82363777:1.0 111972721:48.0 1169676869:0.0 
-0.6380588998899932 -1600162100:1.0 -1198044619:1.0 -879134437:0.0 -466984923:37.0 3556653:63.0 56040503:2.0 82363777:1.0 111972721:63.0 1169676869:0.0 
-0.7868058040345348 -1600162100:1.0 -879134437:1.0 -466984923:24.0 3556653:145.0 56040503:6.0 82363777:0.0 111972721:145.0 1169676869:1.0 1615135971:1.0 
-5.923188457127666 -1600162100:1.0 -1198044619:1.0 -879134437:0.0 -466984923:37.0 3556653:98.0 56040503:2.0 82363777:1.0 111972721:98.0 1169676869:0.0 
-0.9363129118637521 -1600162100:1.0 -1198044619:1.0 -879134437:0.0 -466984923:291.0 3556653:110.0 56040503:5.0 82363777:0.0 111972721:110.0 1169676869:0.0 
-1.1405756667196127 -879134437:0.0 -579517801:1.0 -466984923:68.0 3556653:90.0 56040503:12.0 82363777:0.0 111972721:90.0 1169676869:0.0 1527810816:1.0 1530593462:1.0 
-0.8262830771015824 -879134437:0.0 -466984923:9.0 3223123:1.0 3556653:54458.0 56040503:1.0 82363777:0.0 111972721:70.0 1169676869:0.0 2026591854:1.0 
-0.8609895917790578 -1600162100:1.0 3556653:1715748.0 56040503:1.0 111972721:80.0 
-0.18823994358202525 -879134437:2.0 -466984923:48.0 3556653:128.0 56040503:2.0 82363777:0.0 111972721:128.0 203757181:1.0 1169676869:0.0 2026591854:1.0 
-1.4793027711768791 -1600162100:1.0 -1198044619:1.0 -879134437:0.0 -466984923:55.0 -57640979:1.0 3556653:56.0 56040503:7.0 82363777:1.0 111972721:56.0 1169676869:0.0 
-0.1825401539533267 -1198044619:1.0 -879134437:2.0 -579517801:1.0 -466984923:112.0 -57640979:1.0 3556653:80.0 56040503:11.0 82363777:1.0 111972721:80.0 1169676869:0.0 
-0.6508363109928829 -579517801:1.0 3556653:58.0 56040503:11.0 111972721:58.0 
-0.32250674069216956 -1197814375:1.0 -879134437:2.0 -466984923:105.0 3556653:71.0 56040503:4.0 82363777:1.0 85043953:1.0 111972721:71.0 203757181:1.0 1169676869:0.0 2026591854:1.0 
-0.21147780452872847 -879134437:0.0 -579517801:1.0 -466984923:68.0 3556653:118.0 56040503:12.0 82363777:0.0 111972721:118.0 1169676869:0.0 1527810816:1.0 1530593462:1.0 
-0.8424203452225097 -879134437:2.0 -579517801:1.0 -466984923:114.0 3556653:70.0 56040503:11.0 82363777:1.0 111972721:70.0 203757181:1.0 1169676869:0.0 
-0.49671560213547905 3556653:68.0 56040503:1.0 111972721:68.0 2026591854:1.0 
-3.10010144722511 -879134437:0.0 -579517801:1.0 -466984923:41.0 3556653:72.0 56040503:2.0 82363777:1.0 111972721:72.0 1169676869:0.0 1615135971:1.0 
-0.5020479815026011 -879134437:0.0 -579517801:1.0 -466984923:68.0 3556653:120.0 56040503:12.0 82363777:0.0 111972721:120.0 1169676869:0.0 1527810816:1.0 1530593462:1.0 
-0.606266290913553 -1198044619:1.0 -879134437:2.0 -579517801:1.0 -466984923:113.0 3556653:87.0 56040503:11.0 82363777:1.0 111972721:87.0 1169676869:0.0 
-0.8611519586068996 -879134437:1.0 -466984923:816.0 -418488232:1.0 3556653:54.0 56040503:1.0 82363777:0.0 111972721:54.0 1169676869:0.0 2026591854:1.0 
-0.8608650792848664 -879134437:0.0 -587393212:1.0 -466984923:464.0 -418488232:1.0 -157200862:1.0 3556653:62.0 56040503:1.0 82363777:0.0 111972721:62.0 1169676869:0.0 
-0.8691506065378817 -879134437:1.0 -466984923:618.0 -418488232:1.0 3556653:73.0 56040503:1.0 82363777:0.0 111972721:73.0 1169676869:0.0 2026591854:1.0 
-0.8608583679285775 -879134437:1.0 -466984923:550.0 -418488232:1.0 3556653:70.0 56040503:1.0 82363777:0.0 111972721:70.0 1169676869:0.0 2026591854:1.0 
-0.860894983169271 -879134437:0.0 -587393212:1.0 -466984923:419.0 -418488232:1.0 -157200862:1.0 3556653:80.0 56040503:1.0 82363777:0.0 111972721:80.0 1169676869:0.0 
-1.4748717036145218 -1907179978:1.0 -879134437:1.0 -466984923:7.0 3556653:115.0 82363777:0.0 111972721:115.0 1169676869:0.0 1527810816:1.0 1530593462:1.0 
-0.8610062665106781 -879134437:1.0 -466984923:755.0 -418488232:1.0 3556653:61.0 56040503:1.0 82363777:0.0 111972721:61.0 1169676869:0.0 2026591854:1.0 
-0.8607726043929275 -879134437:1.0 -466984923:512.0 -418488232:1.0 3556653:62.0 56040503:1.0 82363777:0.0 111972721:62.0 1169676869:0.0 2026591854:1.0 
-2.527974026512613 -1907179978:1.0 -879134437:1.0 -466984923:7.0 3556653:85.0 82363777:0.0 111972721:85.0 1169676869:0.0 1527810816:1.0 1530593462:1.0 
-0.3322975663777192 -1907239892:1.0 -879134437:1.0 -466984923:6.0 3223123:1.0 3556653:54.0 82363777:0.0 111972721:54.0 1169676869:0.0 
-0.8929722536410847 -879134437:1.0 -466984923:13.0 3223123:1.0 3556653:102.0 56040503:1.0 82363777:0.0 111972721:102.0 1169676869:0.0 2026591854:1.0 
-6.262551229241777 -879134437:1.0 -466984923:28.0 -418488232:1.0 3556653:75.0 56040503:1.0 82363777:0.0 111972721:75.0 1169676869:0.0 2026591854:1.0 
-8.95379850720515 -879134437:1.0 -466984923:31.0 -418488232:1.0 3556653:94.0 56040503:1.0 82363777:0.0 111972721:94.0 1169676869:0.0 2026591854:1.0 
-1.6577838270490752 -879134437:1.0 -587393212:1.0 -466984923:347.0 -418488232:1.0 -157200862:1.0 3556653:83.0 56040503:1.0 82363777:0.0 111972721:83.0 1169676869:0.0 
-0.604973040194379 -879134437:2.0 -466984923:516.0 -418488232:1.0 3556653:105.0 56040503:1.0 82363777:1.0 111972721:105.0 1169676869:1.0 2026591854:1.0 
-0.24951752665467541 -1907179978:1.0 -879134437:1.0 -466984923:7.0 3556653:53.0 82363777:0.0 111972721:53.0 1169676869:0.0 1527810816:1.0 1530593462:1.0 
